$comment
   OPTIMIZATION
$end

$rem
   JOBTYPE OPT
   EXCHANGE omegaB97X-D
   BASIS cc-pVTZ
$end

$molecule
   0 1
C          0.00000        0.00000        0.00000
C         -0.65396       -1.22126       -0.00000
C          1.38563        0.00000        0.00000
C          0.09526       -2.37957        0.00866
N          2.11912       -1.10562        0.01199
C          1.48546       -2.27640        0.02149
C          2.30642       -3.51253        0.03449
N          2.64816       -4.01529       -1.11977
C          2.72049       -4.18233        1.23298
C          3.39164       -5.14376       -1.21986
N          2.42978       -3.86732        2.49694
C          3.51447       -5.36919        1.12066
C          3.86942       -5.88356       -0.16339
S          3.13246       -4.97441        3.41872
N          3.82333       -5.90565        2.29945
C          4.64054       -7.10368       -0.34592
S          5.46880       -7.88166        0.94464
C          4.83944       -7.84436       -1.51135
C          6.10146       -9.14555       -0.00985
N          4.33035       -7.55268       -2.74103
C          5.66162       -8.99951       -1.32005
C          6.94240      -10.18469        0.54005
C          4.64454       -8.37401       -3.69451
N          5.97089       -9.83929       -2.34442
C          7.15054      -11.44427        0.04887
S          7.86417       -9.93908        1.98881
C          5.46980       -9.52352       -3.49901
C          8.03716      -12.20961        0.84350
C          8.49670      -11.52904        1.92681
H         -0.54853        0.93120        0.00000
H         -1.73532       -1.26909       -0.00410
H          1.93662        0.93286       -0.01167
H         -0.36319       -3.35650        0.00329
H          3.59166       -5.47006       -2.22747
H          4.25463       -8.15868       -4.68373
H          6.68252      -11.79053       -0.85715
H          5.69675      -10.17247       -4.33785
H          8.31345      -13.22779        0.61540
H          9.17700      -11.87435        2.68637
$end

$opt
CONSTRAINT
tors 4 6 7 8 90.00000
tors 10 13 16 17 169.06444
tors 17 19 22 25 156.39459
ENDCONSTRAINT
$end
