$comment
   OPTIMIZATION
$end

$rem
   JOBTYPE OPT
   EXCHANGE omegaB97X-D
   BASIS cc-pVTZ
$end

$molecule
   0 1
C          0.00000        0.00000        0.00000
C         -0.65396       -1.22126       -0.00000
C          1.38563        0.00000        0.00000
C          0.09526       -2.37957        0.00866
N          2.11912       -1.10562        0.01199
C          1.48546       -2.27640        0.02149
C          2.30642       -3.51253        0.03449
N          2.37642       -4.17181        1.15802
C          3.03068       -4.00089       -1.10280
C          3.10284       -5.30928        1.27925
N          3.13645       -3.44859       -2.31321
C          3.78872       -5.20905       -0.97097
C          3.83518       -5.90167        0.27702
S          4.08846       -4.40884       -3.17384
N          4.42637       -5.55131       -2.08855
C          4.61580       -7.11136        0.48660
S          5.30767       -8.00710       -0.80791
C          4.95031       -7.73707        1.68784
C          6.00449       -9.20792        0.18265
N          4.59534       -7.31700        2.93439
C          5.73778       -8.91911        1.51564
C          6.76103      -10.31459       -0.35802
C          5.00846       -8.05223        3.91988
N          6.15341       -9.66635        2.57350
C          7.71289      -11.06846        0.27187
S          6.52945      -10.86731       -1.98584
C          5.79065       -9.23427        3.74210
C          8.26044      -12.07606       -0.55770
C          7.72191      -12.08286       -1.80584
H         -0.54853        0.93120        0.00000
H         -1.73532       -1.26909       -0.00410
H          1.93662        0.93286       -0.01167
H         -0.36319       -3.35650        0.00329
H          3.09802       -5.75068        2.26255
H          4.73321       -7.73982        4.92167
H          7.99231      -10.89800        1.29787
H          6.10558       -9.80686        4.60769
H          9.02855      -12.76180       -0.23394
H          7.95714      -12.74036       -2.62519
$end

$opt
CONSTRAINT
tors 4 6 7 8 -75.00000
tors 10 13 16 17 169.06444
tors 17 19 22 25 156.39459
ENDCONSTRAINT
$end
