$comment
   OPTIMIZATION
$end

$rem
   JOBTYPE OPT
   EXCHANGE omegaB97X-D
   BASIS cc-pVTZ
$end

$molecule
   0 1
C          0.00000        0.00000        0.00000
C         -0.65396       -1.22126       -0.00000
C          1.38563        0.00000        0.00000
C          0.09526       -2.37957        0.00866
N          2.11912       -1.10562        0.01199
C          1.48546       -2.27640        0.02149
C          2.30642       -3.51253        0.03449
N          1.94628       -4.46066        0.85499
C          3.46857       -3.70671       -0.78293
C          2.62997       -5.62680        0.94948
N          4.03134       -2.84714       -1.63484
C          4.18119       -4.94540       -0.68555
C          3.75016       -5.95869        0.22373
S          5.31622       -3.58371       -2.24772
N          5.24694       -4.99996       -1.48176
C          4.45103       -7.22172        0.39744
S          5.67613       -7.76108       -0.68193
C          4.29629       -8.17441        1.40483
C          5.97564       -9.22758        0.13561
N          3.42816       -8.09723        2.45210
C          5.16031       -9.30533        1.25838
C          6.95984      -10.18217       -0.32207
C          3.44168       -9.09956        3.27524
N          5.14679      -10.33941        2.14194
C          7.61111      -11.13457        0.41271
S          7.46327      -10.24708       -1.98077
C          4.30324      -10.22864        3.12176
C          8.51935      -11.90198       -0.35504
C          8.55038      -11.53114       -1.66250
H         -0.54853        0.93120        0.00000
H         -1.73532       -1.26909       -0.00410
H          1.93662        0.93286       -0.01167
H         -0.36319       -3.35650        0.00329
H          2.24587       -6.32277        1.67738
H          2.75477       -9.06226        4.11412
H          7.42662      -11.27193        1.46481
H          4.26679      -11.03608        3.84494
H          9.12676      -12.69352        0.05674
H          9.14794      -11.94772       -2.45518
$end

$opt
CONSTRAINT
tors 4 6 7 8 -45.00000
tors 10 13 16 17 169.06444
tors 17 19 22 25 156.39459
ENDCONSTRAINT
$end
