$comment
   OPTIMIZATION
$end

$rem
   JOBTYPE OPT
   EXCHANGE omegaB97X-D
   BASIS cc-pVTZ
$end

$molecule
   0 1
C          0.00000        0.00000        0.00000
C         -0.65396       -1.22126       -0.00000
C          1.38563        0.00000        0.00000
C          0.09526       -2.37957        0.00866
N          2.11912       -1.10562        0.01199
C          1.48546       -2.27640        0.02149
C          2.30642       -3.51253        0.03449
N          2.89777       -3.84908       -1.07857
C          2.46454       -4.35281        1.18575
C          3.66551       -4.96141       -1.17614
N          1.90276       -4.21847        2.38894
C          3.28527       -5.52185        1.07892
C          3.91770       -5.85144       -0.15832
S          2.41014       -5.45566        3.27269
N          3.34253       -6.22594        2.20751
C          4.73183       -7.04302       -0.34264
S          5.27646       -8.00912        0.97145
C          5.19040       -7.61148       -1.53132
C          6.12250       -9.13141        0.00533
N          4.95302       -7.13963       -2.78726
C          5.97269       -8.79307       -1.33426
C          6.84376      -10.24989        0.56940
C          5.47995       -7.81986       -3.75786
N          6.51042       -9.48132       -2.37703
C          7.17543      -11.42868       -0.04017
S          7.42722      -10.22702        2.20279
C          6.26423       -8.99650       -3.55526
C          7.88365      -12.31192        0.80929
C          8.08672      -11.80000        2.05212
H         -0.54853        0.93120        0.00000
H         -1.73532       -1.26909       -0.00410
H          1.93662        0.93286       -0.01167
H         -0.36319       -3.35650        0.00329
H          4.08373       -5.14248       -2.15289
H          5.30849       -7.45965       -4.76672
H          6.91988      -11.63509       -1.06579
H          6.67819       -9.52141       -4.40932
H          8.22085      -13.29047        0.50304
H          8.59351      -12.25979        2.88322
$end

$opt
CONSTRAINT
tors 4 6 7 8 105.00000
tors 10 13 16 17 169.06444
tors 17 19 22 25 156.39459
ENDCONSTRAINT
$end
