$comment
   OPTIMIZATION
$end

$rem
   JOBTYPE OPT
   EXCHANGE omegaB97X-D
   BASIS cc-pVTZ
$end

$molecule
   0 1
C          0.00000        0.00000        0.00000
C         -0.65396       -1.22126       -0.00000
C          1.38563        0.00000        0.00000
C          0.09526       -2.37957        0.00866
N          2.11912       -1.10562        0.01199
C          1.48546       -2.27640        0.02149
C          2.30642       -3.51253        0.03449
N          3.56721       -3.38950        0.34613
C          1.79598       -4.81236       -0.29166
C          4.40531       -4.45370        0.38213
N          0.56455       -5.13959       -0.68892
C          2.68460       -5.93467       -0.24223
C          4.05753       -5.75578        0.10761
S          0.56893       -6.72277       -0.93915
N          2.09811       -7.08169       -0.57855
C          5.01890       -6.84731        0.13921
S          4.55098       -8.50043        0.06821
C          6.41058       -6.78277        0.21299
C          6.13701       -9.12010        0.16430
N          7.15645       -5.64409        0.27160
C          7.04166       -8.06675        0.22339
C          6.41584      -10.53841        0.15804
C          8.44094       -5.81026        0.34166
N          8.39298       -8.20291        0.29811
C          7.57570      -11.16461       -0.20764
S          5.23099      -11.70184        0.65950
C          9.06573       -7.09480        0.35643
C          7.50373      -12.57376       -0.09637
C          6.29625      -13.00698        0.35333
H         -0.54853        0.93120        0.00000
H         -1.73532       -1.26909       -0.00410
H          1.93662        0.93286       -0.01167
H         -0.36319       -3.35650        0.00329
H          5.42723       -4.22091        0.63361
H          9.05480       -4.91732        0.39458
H          8.44378      -10.61743       -0.53450
H         10.14618       -7.16745        0.41663
H          8.32006      -13.23353       -0.34809
H          5.97899      -14.02096        0.52699
$end

$opt
CONSTRAINT
tors 4 6 7 8 -165.00000
tors 10 13 16 17 169.06444
tors 17 19 22 25 156.39459
ENDCONSTRAINT
$end
