$comment
   OPTIMIZATION
$end

$rem
   JOBTYPE OPT
   EXCHANGE omegaB97X-D
   BASIS cc-pVTZ
$end

$molecule
   0 1
C          0.00000        0.00000        0.00000
C         -0.65396       -1.22126       -0.00000
C          1.38563        0.00000        0.00000
C          0.09526       -2.37957        0.00866
N          2.11912       -1.10562        0.01199
C          1.48546       -2.27640        0.02149
C          2.30642       -3.51253        0.03449
N          3.57294       -3.39201       -0.25407
C          1.78194       -4.81520        0.32511
C          4.40917       -4.45806       -0.27601
N          0.51805       -5.15708        0.58399
C          2.67294       -5.93661        0.30993
C          4.05390       -5.75940       -0.00769
S          0.50845       -6.74459        0.80492
N          2.06648       -7.09051        0.58095
C          5.00167       -6.86102       -0.07711
S          4.64247       -8.43498        0.51487
C          6.29104       -6.87082       -0.60985
C          6.15667       -9.10761        0.11055
N          6.92671       -5.81199       -1.18534
C          6.94143       -8.14100       -0.50686
C          6.48831      -10.48792        0.38288
C          8.13053       -6.03696       -1.61269
N          8.20610       -8.34032       -0.96630
C          7.42371      -11.26591       -0.24231
S          5.68953      -11.38707        1.63284
C          8.77707       -7.30607       -1.50315
C          7.48568      -12.58185        0.27514
C          6.60289      -12.79351        1.28698
H         -0.54853        0.93120        0.00000
H         -1.73532       -1.26909       -0.00410
H          1.93662        0.93286       -0.01167
H         -0.36319       -3.35650        0.00329
H          5.42763       -4.23307       -0.54779
H          8.65818       -5.20666       -2.07001
H          8.04335      -10.88867       -1.03826
H          9.78636       -7.43058       -1.88015
H          8.15895      -13.33791       -0.09919
H          6.44573      -13.69706        1.85077
$end

$opt
CONSTRAINT
tors 4 6 7 8 165.00000
tors 10 13 16 17 169.06444
tors 17 19 22 25 156.39459
ENDCONSTRAINT
$end
