$comment
   OPTIMIZATION
$end

$rem
   JOBTYPE OPT
   EXCHANGE omegaB97X-D
   BASIS cc-pVTZ
$end

$molecule
   0 1
C          0.00000        0.00000        0.00000
C         -0.65396       -1.22126       -0.00000
C          1.38563        0.00000        0.00000
C          0.09526       -2.37957        0.00866
N          2.11912       -1.10562        0.01199
C          1.48546       -2.27640        0.02149
C          2.30642       -3.51253        0.03449
N          1.79507       -4.56362        0.61381
C          3.62067       -3.60305       -0.53209
C          2.46319       -5.74033        0.68591
N          4.33821       -2.63782       -1.11068
C          4.31773       -4.85236       -0.46132
C          3.71921       -5.97972        0.17914
S          5.73798       -3.29606       -1.53074
N          5.53078       -4.80647       -1.00826
C          4.38879       -7.26390        0.31762
S          5.82713       -7.65928       -0.53774
C          4.03780       -8.34906        1.12113
C          5.96979       -9.23177        0.10696
N          2.96320       -8.41124        1.95644
C          4.93326       -9.45879        1.00445
C          7.04647      -10.12398       -0.25922
C          2.81708       -9.52136        2.61119
N          4.74830      -10.60864        1.70718
C          7.54117      -11.18058        0.45492
S          7.89649       -9.95706       -1.76206
C          3.71162      -10.62822        2.48744
C          8.60712      -11.84207       -0.20041
C          8.91241      -11.28799       -1.40362
H         -0.54853        0.93120        0.00000
H         -1.73532       -1.26909       -0.00410
H          1.93662        0.93286       -0.01167
H         -0.36319       -3.35650        0.00329
H          1.94388       -6.52829        1.20666
H          1.96502       -9.59554        3.27861
H          7.13685      -11.46493        1.41173
H          3.53475      -11.53048        3.06271
H          9.12567      -12.69257        0.21526
H          9.67409      -11.59455       -2.09991
$end

$opt
CONSTRAINT
tors 4 6 7 8 -30.00000
tors 10 13 16 17 169.06444
tors 17 19 22 25 156.39459
ENDCONSTRAINT
$end
