$comment
   OPTIMIZATION
$end

$rem
   JOBTYPE OPT
   EXCHANGE omegaB97X-D
   BASIS cc-pVTZ
$end

$molecule
   0 1
C          0.00000        0.00000        0.00000
C         -0.65396       -1.22126       -0.00000
C          1.38563        0.00000        0.00000
C          0.09526       -2.37957        0.00866
N          2.11912       -1.10562        0.01199
C          1.48546       -2.27640        0.02149
C          2.30642       -3.51253        0.03449
N          1.74513       -4.60745       -0.39909
C          3.65824       -3.56714        0.50995
C          2.40434       -5.79109       -0.42442
N          4.38617       -2.58332        1.04242
C          4.35289       -4.81920        0.47143
C          3.70163       -5.99343       -0.01477
S          5.80914       -3.21778        1.41887
N          5.59255       -4.74484        0.95148
C          4.33823       -7.30129       -0.04468
S          4.21474       -8.36465       -1.39035
C          5.13036       -7.90891        0.92985
C          5.15330       -9.60897       -0.69790
N          5.46782       -7.37157        2.13557
C          5.59343       -9.21076        0.55873
C          5.42200      -10.85094       -1.38688
C          6.21213       -8.11127        2.89798
N          6.37315       -9.95888        1.38490
C          6.46261      -11.71541       -1.18453
S          4.37606      -11.44361       -2.63736
C          6.66794       -9.41255        2.52442
C          6.42289      -12.84099       -2.04171
C          5.35611      -12.82582       -2.88414
H         -0.54853        0.93120        0.00000
H         -1.73532       -1.26909       -0.00410
H          1.93662        0.93286       -0.01167
H         -0.36319       -3.35650        0.00329
H          1.82722       -6.62671       -0.78554
H          6.48907       -7.70587        3.86541
H          7.21695      -11.53887       -0.43646
H          7.28864       -9.98234        3.20734
H          7.16514      -13.62456       -2.03058
H          5.09092      -13.55509       -3.63034
$end

$opt
CONSTRAINT
tors 4 6 7 8 21.82164
tors 10 13 16 17 45.00000
tors 17 19 22 25 156.39459
ENDCONSTRAINT
$end
