$comment
   OPTIMIZATION
$end

$rem
   JOBTYPE OPT
   EXCHANGE omegaB97X-D
   BASIS cc-pVTZ
$end

$molecule
   0 1
C          0.00000        0.00000        0.00000
C         -0.65396       -1.22126       -0.00000
C          1.38563        0.00000        0.00000
C          0.09526       -2.37957        0.00866
N          2.11912       -1.10562        0.01199
C          1.48546       -2.27640        0.02149
C          2.30642       -3.51253        0.03449
N          1.74513       -4.60745       -0.39909
C          3.65824       -3.56714        0.50995
C          2.40434       -5.79109       -0.42442
N          4.38617       -2.58332        1.04242
C          4.35289       -4.81920        0.47143
C          3.70163       -5.99343       -0.01477
S          5.80914       -3.21778        1.41887
N          5.59255       -4.74484        0.95148
C          4.33823       -7.30129       -0.04468
S          5.20996       -7.87979       -1.40932
C          4.38191       -8.27379        0.95468
C          5.60955       -9.38645       -0.71721
N          3.81576       -8.17697        2.19018
C          5.10326       -9.44973        0.57550
C          6.37941      -10.38404       -1.42539
C          3.97164       -9.20344        2.96767
N          5.24631      -10.50813        1.41784
C          7.13146      -11.39645       -0.89571
S          6.43900      -10.42755       -3.15844
C          4.68895      -10.37716        2.58235
C          7.76159      -12.19304       -1.88143
C          7.48362      -11.78422       -3.14773
H         -0.54853        0.93120        0.00000
H         -1.73532       -1.26909       -0.00410
H          1.93662        0.93286       -0.01167
H         -0.36319       -3.35650        0.00329
H          1.82722       -6.62671       -0.78554
H          3.52469       -9.15085        3.95481
H          7.21190      -11.55511        0.16644
H          4.78412      -11.20306        3.27886
H          8.39984      -13.03226       -1.65038
H          7.83094      -12.21125       -4.07292
$end

$opt
CONSTRAINT
tors 4 6 7 8 21.82164
tors 10 13 16 17 90.00000
tors 17 19 22 25 156.39459
ENDCONSTRAINT
$end
