$comment
   OPTIMIZATION
$end

$rem
   JOBTYPE OPT
   EXCHANGE omegaB97X-D
   BASIS cc-pVTZ
$end

$molecule
   0 1
C          0.00000        0.00000        0.00000
C         -0.65396       -1.22126       -0.00000
C          1.38563        0.00000        0.00000
C          0.09526       -2.37957        0.00866
N          2.11912       -1.10562        0.01199
C          1.48546       -2.27640        0.02149
C          2.30642       -3.51253        0.03449
N          1.74513       -4.60745       -0.39909
C          3.65824       -3.56714        0.50995
C          2.40434       -5.79109       -0.42442
N          4.38617       -2.58332        1.04242
C          4.35289       -4.81920        0.47143
C          3.70163       -5.99343       -0.01477
S          5.80914       -3.21778        1.41887
N          5.59255       -4.74484        0.95148
C          4.33823       -7.30129       -0.04468
S          3.92538       -8.50994       -1.19599
C          5.34635       -7.80036        0.78055
C          5.02228       -9.67486       -0.60565
N          5.94461       -7.13195        1.80606
C          5.73482       -9.13970        0.46080
C          5.14673      -10.98934       -1.19389
C          6.85942       -7.78601        2.45241
N          6.69902       -9.79515        1.16143
C          6.22188      -11.83352       -1.14351
S          3.85015      -11.71209       -2.09135
C          7.24024       -9.12500        2.13194
C          6.00516      -13.04904       -1.83547
C          4.77174      -13.12129       -2.40238
H         -0.54853        0.93120        0.00000
H         -1.73532       -1.26909       -0.00410
H          1.93662        0.93286       -0.01167
H         -0.36319       -3.35650        0.00329
H          1.82722       -6.62671       -0.78554
H          7.34594       -7.27532        3.27671
H          7.12596      -11.57904       -0.61654
H          8.01319       -9.61831        2.71115
H          6.74422      -13.83222       -1.90940
H          4.35413      -13.92862       -2.97925
$end

$opt
CONSTRAINT
tors 4 6 7 8 21.82164
tors 10 13 16 17 30.00000
tors 17 19 22 25 156.39459
ENDCONSTRAINT
$end
