$comment
   OPTIMIZATION
$end

$rem
   JOBTYPE OPT
   EXCHANGE omegaB97X-D
   BASIS cc-pVTZ
$end

$molecule
   0 1
C          0.00000        0.00000        0.00000
C         -0.65396       -1.22126       -0.00000
C          1.38563        0.00000        0.00000
C          0.09526       -2.37957        0.00866
N          2.11912       -1.10562        0.01199
C          1.48546       -2.27640        0.02149
C          2.30642       -3.51253        0.03449
N          1.74513       -4.60745       -0.39909
C          3.65824       -3.56714        0.50995
C          2.40434       -5.79109       -0.42442
N          4.38617       -2.58332        1.04242
C          4.35289       -4.81920        0.47143
C          3.70163       -5.99343       -0.01477
S          5.80914       -3.21778        1.41887
N          5.59255       -4.74484        0.95148
C          4.33823       -7.30129       -0.04468
S          3.98139       -8.53516        1.09858
C          5.28454       -7.79098       -0.94529
C          5.06774       -9.67679        0.44648
N          5.80851       -7.11107       -2.00338
C          5.69338       -9.13401       -0.66949
C          5.23839      -10.99522        1.01393
C          6.68299       -7.75372       -2.71380
N          6.61423       -9.77699       -1.43683
C          5.69720      -12.12404        0.39233
S          4.86457      -11.32732        2.67492
C          7.09118       -9.09319       -2.43123
C          5.73406      -13.25150        1.24716
C          5.30739      -12.97285        2.50741
H         -0.54853        0.93120        0.00000
H         -1.73532       -1.26909       -0.00410
H          1.93662        0.93286       -0.01167
H         -0.36319       -3.35650        0.00329
H          1.82722       -6.62671       -0.78554
H          7.11775       -7.23006       -3.55863
H          6.00166      -12.12575       -0.64068
H          7.82787       -9.57644       -3.06373
H          6.06091      -14.22974        0.92894
H          5.23623      -13.64392        3.34620
$end

$opt
CONSTRAINT
tors 4 6 7 8 21.82164
tors 10 13 16 17 -75.00000
tors 17 19 22 25 156.39459
ENDCONSTRAINT
$end
