$comment
   OPTIMIZATION
$end

$rem
   JOBTYPE OPT
   EXCHANGE omegaB97X-D
   BASIS cc-pVTZ
$end

$molecule
   0 1
C          0.00000        0.00000        0.00000
C         -0.65396       -1.22126       -0.00000
C          1.38563        0.00000        0.00000
C          0.09526       -2.37957        0.00866
N          2.11912       -1.10562        0.01199
C          1.48546       -2.27640        0.02149
C          2.30642       -3.51253        0.03449
N          1.74513       -4.60745       -0.39909
C          3.65824       -3.56714        0.50995
C          2.40434       -5.79109       -0.42442
N          4.38617       -2.58332        1.04242
C          4.35289       -4.81920        0.47143
C          3.70163       -5.99343       -0.01477
S          5.80914       -3.21778        1.41887
N          5.59255       -4.74484        0.95148
C          4.33823       -7.30129       -0.04468
S          4.54024       -8.20383       -1.49431
C          4.88640       -8.02953        1.01152
C          5.30168       -9.53558       -0.74906
N          4.92933       -7.63781        2.31577
C          5.43371       -9.28973        0.61238
C          5.73352      -10.69686       -1.49358
C          5.48149       -8.47247        3.14093
N          6.00551      -10.14061        1.50639
C          6.70531      -11.59795       -1.15478
S          5.01252      -11.12524       -3.01199
C          6.02229       -9.73170        2.73782
C          6.87548      -12.61890       -2.12017
C          6.03423      -12.48898       -3.18005
H         -0.54853        0.93120        0.00000
H         -1.73532       -1.26909       -0.00410
H          1.93662        0.93286       -0.01167
H         -0.36319       -3.35650        0.00329
H          1.82722       -6.62671       -0.78554
H          5.52215       -8.18386        4.18593
H          7.26316      -11.52094       -0.23680
H          6.47140      -10.38630        3.47681
H          7.60102      -13.41250       -2.02618
H          5.95608      -13.12447       -4.04550
$end

$opt
CONSTRAINT
tors 4 6 7 8 21.82164
tors 10 13 16 17 60.00000
tors 17 19 22 25 156.39459
ENDCONSTRAINT
$end
