$comment
   OPTIMIZATION
$end

$rem
   JOBTYPE OPT
   EXCHANGE omegaB97X-D
   BASIS cc-pVTZ
$end

$molecule
   0 1
C          0.00000        0.00000        0.00000
C         -0.65396       -1.22126       -0.00000
C          1.38563        0.00000        0.00000
C          0.09526       -2.37957        0.00866
N          2.11912       -1.10562        0.01199
C          1.48546       -2.27640        0.02149
C          2.30642       -3.51253        0.03449
N          1.74513       -4.60745       -0.39909
C          3.65824       -3.56714        0.50995
C          2.40434       -5.79109       -0.42442
N          4.38617       -2.58332        1.04242
C          4.35289       -4.81920        0.47143
C          3.70163       -5.99343       -0.01477
S          5.80914       -3.21778        1.41887
N          5.59255       -4.74484        0.95148
C          4.33823       -7.30129       -0.04468
S          3.73485       -8.64916        0.83621
C          5.47224       -7.70407       -0.75050
C          4.95242       -9.73023        0.32873
N          6.22279       -6.91926       -1.57337
C          5.81642       -9.07704       -0.54204
C          4.99682      -11.10715        0.76637
C          7.24388       -7.49407       -2.12959
N          6.89587       -9.64663       -1.14250
C          5.59693      -12.16717        0.14400
S          4.24902      -11.61714        2.24610
C          7.58582       -8.86425       -1.91434
C          5.44273      -13.38422        0.84988
C          4.73196      -13.24134        1.99979
H         -0.54853        0.93120        0.00000
H         -1.73532       -1.26909       -0.00410
H          1.93662        0.93286       -0.01167
H         -0.36319       -3.35650        0.00329
H          1.82722       -6.62671       -0.78554
H          7.85924       -6.88683       -2.78499
H          6.13368      -12.05823       -0.78328
H          8.45347       -9.28689       -2.40915
H          5.84262      -14.32635        0.50704
H          4.47277      -14.00115        2.71706
$end

$opt
CONSTRAINT
tors 4 6 7 8 21.82164
tors 10 13 16 17 -60.00000
tors 17 19 22 25 156.39459
ENDCONSTRAINT
$end
