$comment
   OPTIMIZATION
$end

$rem
   JOBTYPE OPT
   EXCHANGE omegaB97X-D
   BASIS cc-pVTZ
$end

$molecule
   0 1
C          0.00000        0.00000        0.00000
C         -0.65396       -1.22126       -0.00000
C          1.38563        0.00000        0.00000
C          0.09526       -2.37957        0.00866
N          2.11912       -1.10562        0.01199
C          1.48546       -2.27640        0.02149
C          2.30642       -3.51253        0.03449
N          1.74513       -4.60745       -0.39909
C          3.65824       -3.56714        0.50995
C          2.40434       -5.79109       -0.42442
N          4.38617       -2.58332        1.04242
C          4.35289       -4.81920        0.47143
C          3.70163       -5.99343       -0.01477
S          5.80914       -3.21778        1.41887
N          5.59255       -4.74484        0.95148
C          4.33823       -7.30129       -0.04468
S          5.93279       -7.54554       -0.64009
C          3.83159       -8.52860        0.38358
C          5.94766       -9.22976       -0.37200
N          2.60116       -8.73935        0.92947
C          4.74253       -9.61678        0.20183
C          7.08767      -10.05589       -0.69957
C          2.32719       -9.96470        1.25485
N          4.42059      -10.89031        0.55490
C          7.42545      -11.27000       -0.16763
S          8.24371       -9.57785       -1.90122
C          3.23874      -11.04839        1.06689
C          8.61573      -11.80392       -0.71666
C          9.17070      -10.99707       -1.65948
H         -0.54853        0.93120        0.00000
H         -1.73532       -1.26909       -0.00410
H          1.93662        0.93286       -0.01167
H         -0.36319       -3.35650        0.00329
H          1.82722       -6.62671       -0.78554
H          1.35072      -10.15716        1.68661
H          6.82486      -11.75307        0.58453
H          2.94995      -12.05196        1.35972
H          9.03984      -12.74903       -0.41344
H         10.06929      -11.16390       -2.22838
$end

$opt
CONSTRAINT
tors 4 6 7 8 21.82164
tors 10 13 16 17 135.00000
tors 17 19 22 25 156.39459
ENDCONSTRAINT
$end
