$comment
   OPTIMIZATION
$end

$rem
   JOBTYPE OPT
   EXCHANGE omegaB97X-D
   BASIS cc-pVTZ
$end

$molecule
   0 1
C          0.00000        0.00000        0.00000
C         -0.65396       -1.22126       -0.00000
C          1.38563        0.00000        0.00000
C          0.09526       -2.37957        0.00866
N          2.11912       -1.10562        0.01199
C          1.48546       -2.27640        0.02149
C          2.30642       -3.51253        0.03449
N          1.74513       -4.60745       -0.39909
C          3.65824       -3.56714        0.50995
C          2.40434       -5.79109       -0.42442
N          4.38617       -2.58332        1.04242
C          4.35289       -4.81920        0.47143
C          3.70163       -5.99343       -0.01477
S          5.80914       -3.21778        1.41887
N          5.59255       -4.74484        0.95148
C          4.33823       -7.30129       -0.04468
S          5.79807       -7.64398        0.79689
C          3.92061       -8.46051       -0.69904
C          5.89827       -9.26892        0.28871
N          2.79786       -8.58895       -1.46016
C          4.80023       -9.57247       -0.50728
C          6.98166      -10.13919        0.68654
C          2.59905       -9.75827       -1.98512
N          4.55978      -10.78530       -1.07422
C          6.98354      -11.50592        0.74277
S          8.52575       -9.51071        1.16583
C          3.48310      -10.86401       -1.79426
C          8.21803      -12.04093        1.18217
C          9.14256      -11.08196        1.45333
H         -0.54853        0.93120        0.00000
H         -1.73532       -1.26909       -0.00410
H          1.93662        0.93286       -0.01167
H         -0.36319       -3.35650        0.00329
H          1.82722       -6.62671       -0.78554
H          1.71368       -9.88245       -2.59966
H          6.12321      -12.09191        0.46662
H          3.26128      -11.81761       -2.26088
H          8.40231      -13.09843        1.29524
H         10.15319      -11.21519        1.79952
$end

$opt
CONSTRAINT
tors 4 6 7 8 21.82164
tors 10 13 16 17 -165.00000
tors 17 19 22 25 156.39459
ENDCONSTRAINT
$end
