$comment
   OPTIMIZATION
$end

$rem
   JOBTYPE OPT
   EXCHANGE omegaB97X-D
   BASIS cc-pVTZ
$end

$molecule
   0 1
C          0.00000        0.00000        0.00000
C         -0.65396       -1.22126       -0.00000
C          1.38563        0.00000        0.00000
C          0.09526       -2.37957        0.00866
N          2.11912       -1.10562        0.01199
C          1.48546       -2.27640        0.02149
C          2.30642       -3.51253        0.03449
N          1.74513       -4.60745       -0.39909
C          3.65824       -3.56714        0.50995
C          2.40434       -5.79109       -0.42442
N          4.38617       -2.58332        1.04242
C          4.35289       -4.81920        0.47143
C          3.70163       -5.99343       -0.01477
S          5.80914       -3.21778        1.41887
N          5.59255       -4.74484        0.95148
C          4.33823       -7.30129       -0.04468
S          3.53012       -8.71610       -0.59430
C          5.63851       -7.64770        0.32365
C          4.84620       -9.76697       -0.32539
N          6.58957       -6.79495        0.79762
C          5.92591       -9.03984        0.16135
C          4.77627      -11.18310       -0.60661
C          7.73622       -7.32798        1.08660
N          7.14102       -9.56431        0.47539
C          5.81070      -12.04003       -0.86492
S          3.26335      -12.03083       -0.64321
C          8.01646       -8.71962        0.92705
C          5.38382      -13.36822       -1.10362
C          4.03444      -13.51172       -1.02310
H         -0.54853        0.93120        0.00000
H         -1.73532       -1.26909       -0.00410
H          1.93662        0.93286       -0.01167
H         -0.36319       -3.35650        0.00329
H          1.82722       -6.62671       -0.78554
H          8.50738       -6.66868        1.47079
H          6.83704      -11.71385       -0.87102
H          8.99639       -9.10488        1.18705
H          6.05901      -14.17897       -1.33132
H          3.45431      -14.40822       -1.15988
$end

$opt
CONSTRAINT
tors 4 6 7 8 21.82164
tors 10 13 16 17 0.00000
tors 17 19 22 25 156.39459
ENDCONSTRAINT
$end
