$comment
   OPTIMIZATION
$end

$rem
   JOBTYPE OPT
   EXCHANGE omegaB97X-D
   BASIS cc-pVTZ
$end

$molecule
   0 1
C          0.00000        0.00000        0.00000
C         -0.65396       -1.22126       -0.00000
C          1.38563        0.00000        0.00000
C          0.09526       -2.37957        0.00866
N          2.11912       -1.10562        0.01199
C          1.48546       -2.27640        0.02149
C          2.30642       -3.51253        0.03449
N          1.74513       -4.60745       -0.39909
C          3.65824       -3.56714        0.50995
C          2.40434       -5.79109       -0.42442
N          4.38617       -2.58332        1.04242
C          4.35289       -4.81920        0.47143
C          3.70163       -5.99343       -0.01477
S          5.80914       -3.21778        1.41887
N          5.59255       -4.74484        0.95148
C          4.33823       -7.30129       -0.04468
S          5.95981       -7.55770        0.46672
C          3.80177       -8.52407       -0.44890
C          5.96960       -9.23070        0.13551
N          2.53551       -8.72927       -0.90806
C          4.72254       -9.61403       -0.34338
C          7.13188      -10.05873        0.36540
C          2.24209       -9.94913       -1.23714
N          4.37969      -10.88155       -0.69840
C          7.17237      -11.41013        0.57320
S          8.73303       -9.39226        0.39785
C          3.16684      -11.03305       -1.13421
C          8.48496      -11.90158        0.77028
C          9.42907      -10.92547        0.70881
H         -0.54853        0.93120        0.00000
H         -1.73532       -1.26909       -0.00410
H          1.93662        0.93286       -0.01167
H         -0.36319       -3.35650        0.00329
H          1.82722       -6.62671       -0.78554
H          1.24064      -10.13532       -1.61050
H          6.28254      -12.01678        0.57288
H          2.86056      -12.03176       -1.42586
H          8.71024      -12.94078        0.95567
H         10.49479      -11.02658        0.82278
$end

$opt
CONSTRAINT
tors 4 6 7 8 21.82164
tors 10 13 16 17 180.00000
tors 17 19 22 25 156.39459
ENDCONSTRAINT
$end
