$comment
   OPTIMIZATION
$end

$rem
   JOBTYPE OPT
   EXCHANGE omegaB97X-D
   BASIS cc-pVTZ
$end

$molecule
   0 1
C          0.00000        0.00000        0.00000
C          1.38581        0.00000        0.00000
C         -0.68441       -1.20612       -0.00000
C          2.08122       -1.19691        0.02084
C          0.00906       -2.40357        0.01672
C          1.40260       -2.41402        0.04578
C          2.15417       -3.67686        0.17622
C          3.22026       -3.78042        1.02839
C          1.81385       -4.87959       -0.50701
N          3.95630       -4.89635        1.24602
N          0.81920       -5.05581       -1.38069
C          2.58241       -6.06807       -0.28659
C          3.67913       -6.01492        0.63331
S          0.89477       -6.59668       -1.83969
N          2.15213       -7.11506       -0.99054
C          4.52407       -7.16314        0.96113
N          4.47931       -7.86706        2.05033
S          5.72207       -7.67796       -0.18705
C          5.40942       -8.85332        2.03006
C          6.19722       -8.91966        0.91352
C          7.24443       -9.87637        0.62452
S          8.69003       -9.44154       -0.22246
C          7.30245      -11.20405        0.94931
C          9.33658      -11.02051       -0.14643
S          6.21337      -12.30748        1.74723
C          8.48823      -11.86656        0.51234
C          7.34412      -13.61954        1.48265
C          8.47052      -13.26775        0.84412
H         -0.54361        0.93510        0.00000
H          1.93245        0.93323       -0.01097
H         -1.76615       -1.21136       -0.00018
H          3.16287       -1.19311        0.00205
H         -0.53410       -3.33775        0.01621
H          3.51909       -2.91963        1.61428
H          5.50915       -9.51325        2.87971
H         10.28878      -11.24610       -0.59526
H          7.06979      -14.60419        1.82319
H          9.25940      -13.96208        0.60050
$end

$opt
CONSTRAINT
tors 4 6 7 8 40.74584
tors 10 13 16 18 -105.00000
tors 18 20 21 22 38.09146
ENDCONSTRAINT
$end
