$comment
   OPTIMIZATION
$end

$rem
   JOBTYPE OPT
   EXCHANGE omegaB97X-D
   BASIS cc-pVTZ
$end

$molecule
   0 1
C          0.00000        0.00000        0.00000
C          1.38581        0.00000        0.00000
C         -0.68441       -1.20612       -0.00000
C          2.08122       -1.19691        0.02084
C          0.00906       -2.40357        0.01672
C          1.40260       -2.41402        0.04578
C          2.15417       -3.67686        0.17622
C          3.22026       -3.78042        1.02839
C          1.81385       -4.87959       -0.50701
N          3.95630       -4.89635        1.24602
N          0.81920       -5.05581       -1.38069
C          2.58241       -6.06807       -0.28659
C          3.67913       -6.01492        0.63331
S          0.89477       -6.59668       -1.83969
N          2.15213       -7.11506       -0.99054
C          4.52407       -7.16314        0.96113
N          4.16901       -8.41115        0.94438
S          6.17522       -6.88444        1.42437
C          5.19809       -9.21409        1.31114
C          6.37289       -8.58723        1.62513
C          7.62288       -9.19804        2.02499
S          8.67518       -8.47681        3.19491
C          8.17072      -10.37848        1.60304
C          9.82445       -9.73619        3.09456
S          7.70076      -11.58696        0.43725
C          9.42628      -10.69352        2.20325
C          9.17318      -12.47882        0.76377
C          9.97177      -11.92231        1.68725
H         -0.54361        0.93510        0.00000
H          1.93245        0.93323       -0.01097
H         -1.76615       -1.21136       -0.00018
H          3.16287       -1.19311        0.00205
H         -0.53410       -3.33775        0.01621
H          3.51909       -2.91963        1.61428
H          5.05050      -10.28300        1.36571
H         10.72825       -9.70254        3.67855
H          9.35286      -13.38492        0.20927
H         10.91599      -12.34575        1.99208
$end

$opt
CONSTRAINT
tors 4 6 7 8 40.74584
tors 10 13 16 18 -30.00000
tors 18 20 21 22 38.09146
ENDCONSTRAINT
$end
