$comment
   OPTIMIZATION
$end

$rem
   JOBTYPE OPT
   EXCHANGE omegaB97X-D
   BASIS cc-pVTZ
$end

$molecule
   0 1
C          0.00000        0.00000        0.00000
C          1.38581        0.00000        0.00000
C         -0.68441       -1.20612       -0.00000
C          2.08122       -1.19691        0.02084
C          0.00906       -2.40357        0.01672
C          1.40260       -2.41402        0.04578
C          2.15417       -3.67686        0.17622
C          3.22026       -3.78042        1.02839
C          1.81385       -4.87959       -0.50701
N          3.95630       -4.89635        1.24602
N          0.81920       -5.05581       -1.38069
C          2.58241       -6.06807       -0.28659
C          3.67913       -6.01492        0.63331
S          0.89477       -6.59668       -1.83969
N          2.15213       -7.11506       -0.99054
C          4.52407       -7.16314        0.96113
N          5.80875       -7.24626        0.79817
S          3.78517       -8.58186        1.63923
C          6.27217       -8.45571        1.19904
C          5.33819       -9.33392        1.67666
C          5.55877      -10.67144        2.18446
S          4.43501      -11.96111        1.91965
C          6.62006      -11.14808        2.90422
C          5.37698      -13.10005        2.77548
S          8.06826      -10.42662        3.55427
C          6.52566      -12.52940        3.24916
C          8.51502      -11.96188        4.27082
C          7.64804      -12.96000        4.04198
H         -0.54361        0.93510        0.00000
H          1.93245        0.93323       -0.01097
H         -1.76615       -1.21136       -0.00018
H          3.16287       -1.19311        0.00205
H         -0.53410       -3.33775        0.01621
H          3.51909       -2.91963        1.61428
H          7.32400       -8.68430        1.10547
H          5.03658      -14.11424        2.89616
H          9.42310      -12.00867        4.84872
H          7.77787      -13.96128        4.42191
$end

$opt
CONSTRAINT
tors 4 6 7 8 40.74584
tors 10 13 16 18 120.00000
tors 18 20 21 22 38.09146
ENDCONSTRAINT
$end
