$comment
   OPTIMIZATION
$end

$rem
   JOBTYPE OPT
   EXCHANGE omegaB97X-D
   BASIS cc-pVTZ
$end

$molecule
   0 1
C          0.00000        0.00000        0.00000
C          1.38581        0.00000        0.00000
C         -0.68441       -1.20612       -0.00000
C          2.08122       -1.19691        0.02084
C          0.00906       -2.40357        0.01672
C          1.40260       -2.41402        0.04578
C          2.15417       -3.67686        0.17622
C          3.22026       -3.78042        1.02839
C          1.81385       -4.87959       -0.50701
N          3.95630       -4.89635        1.24602
N          0.81920       -5.05581       -1.38069
C          2.58241       -6.06807       -0.28659
C          3.67913       -6.01492        0.63331
S          0.89477       -6.59668       -1.83969
N          2.15213       -7.11506       -0.99054
C          4.52407       -7.16314        0.96113
N          5.04500       -8.00209        0.11931
S          4.89896       -7.48004        2.62774
C          5.76657       -8.95209        0.76356
C          5.80686       -8.86019        2.12797
C          6.51217       -9.72193        3.05286
S          5.87147      -10.13700        4.60639
C          7.72107      -10.34160        2.89117
C          7.21540      -11.10644        5.01986
S          8.92298      -10.34762        1.62794
C          8.13310      -11.13028        4.00658
C          9.94471      -11.38656        2.60094
C          9.42983      -11.71953        3.79438
H         -0.54361        0.93510        0.00000
H          1.93245        0.93323       -0.01097
H         -1.76615       -1.21136       -0.00018
H          3.16287       -1.19311        0.00205
H         -0.53410       -3.33775        0.01621
H          3.51909       -2.91963        1.61428
H          6.24633       -9.73680        0.19663
H          7.26748      -11.59240        5.97910
H         10.90350      -11.67469        2.20285
H          9.93978      -12.34523        4.51007
$end

$opt
CONSTRAINT
tors 4 6 7 8 40.74584
tors 10 13 16 18 45.00000
tors 18 20 21 22 38.09146
ENDCONSTRAINT
$end
