$comment
   OPTIMIZATION
$end

$rem
   JOBTYPE OPT
   EXCHANGE omegaB97X-D
   BASIS cc-pVTZ
$end

$molecule
   0 1
C          0.00000        0.00000        0.00000
C          1.38581        0.00000        0.00000
C         -0.68441       -1.20612       -0.00000
C          2.08122       -1.19691        0.02084
C          0.00906       -2.40357        0.01672
C          1.40260       -2.41402        0.04578
C          2.15417       -3.67686        0.17622
C          3.22026       -3.78042        1.02839
C          1.81385       -4.87959       -0.50701
N          3.95630       -4.89635        1.24602
N          0.81920       -5.05581       -1.38069
C          2.58241       -6.06807       -0.28659
C          3.67913       -6.01492        0.63331
S          0.89477       -6.59668       -1.83969
N          2.15213       -7.11506       -0.99054
C          4.52407       -7.16314        0.96113
N          4.82274       -8.15019        0.17346
S          5.22290       -7.26426        2.54857
C          5.62123       -9.04831        0.80118
C          5.94772       -8.76477        2.09914
C          6.79232       -9.53431        2.98790
S          6.47098       -9.67396        4.68303
C          7.91385      -10.25788        2.68753
C          7.82897      -10.67010        4.96676
S          8.82600      -10.53338        1.22725
C          8.51449      -10.90644        3.80760
C          9.98229      -11.49415        2.12724
C          9.71265      -11.61368        3.43616
H         -0.54361        0.93510        0.00000
H          1.93245        0.93323       -0.01097
H         -1.76615       -1.21136       -0.00018
H          3.16287       -1.19311        0.00205
H         -0.53410       -3.33775        0.01621
H          3.51909       -2.91963        1.61428
H          5.93902       -9.93935        0.27926
H          8.05829      -11.01587        5.96018
H         10.82442      -11.90606        1.59627
H         10.33296      -12.16595        4.12463
$end

$opt
CONSTRAINT
tors 4 6 7 8 40.74584
tors 10 13 16 18 30.00000
tors 18 20 21 22 38.09146
ENDCONSTRAINT
$end
