$comment
   OPTIMIZATION
$end

$rem
   JOBTYPE OPT
   EXCHANGE omegaB97X-D
   BASIS cc-pVTZ
$end

$molecule
   0 1
C          0.00000        0.00000        0.00000
C          1.38581        0.00000        0.00000
C         -0.68441       -1.20612       -0.00000
C          2.08122       -1.19691        0.02084
C          0.00906       -2.40357        0.01672
C          1.40260       -2.41402        0.04578
C          2.15417       -3.67686        0.17622
C          3.22026       -3.78042        1.02839
C          1.81385       -4.87959       -0.50701
N          3.95630       -4.89635        1.24602
N          0.81920       -5.05581       -1.38069
C          2.58241       -6.06807       -0.28659
C          3.67913       -6.01492        0.63331
S          0.89477       -6.59668       -1.83969
N          2.15213       -7.11506       -0.99054
C          4.52407       -7.16314        0.96113
N          4.61046       -8.27225        0.29307
S          5.53223       -7.08647        2.37403
C          5.48290       -9.12719        0.88143
C          6.08346       -8.68508        2.02840
C          7.06062       -9.37905        2.84020
S          7.09248       -9.25001        4.56605
C          8.06354      -10.21864        2.43916
C          8.43614      -10.29215        4.72559
S          8.64015      -10.76709        0.88769
C          8.85544      -10.74210        3.50444
C          9.91611      -11.67107        1.67813
C          9.91920      -11.58140        3.01686
H         -0.54361        0.93510        0.00000
H          1.93245        0.93323       -0.01097
H         -1.76615       -1.21136       -0.00018
H          3.16287       -1.19311        0.00205
H         -0.53410       -3.33775        0.01621
H          3.51909       -2.91963        1.61428
H          5.64723      -10.10482        0.45178
H          8.85175      -10.50769        5.69504
H         10.61138      -12.21564        1.06102
H         10.64483      -12.07320        3.64564
$end

$opt
CONSTRAINT
tors 4 6 7 8 40.74584
tors 10 13 16 18 15.00000
tors 18 20 21 22 38.09146
ENDCONSTRAINT
$end
