$comment
   OPTIMIZATION
$end

$rem
   JOBTYPE OPT
   EXCHANGE omegaB97X-D
   BASIS cc-pVTZ
$end

$molecule
   0 1
C          0.00000        0.00000        0.00000
C          1.38581        0.00000        0.00000
C         -0.68441       -1.20612       -0.00000
C          2.08122       -1.19691        0.02084
C          0.00906       -2.40357        0.01672
C          1.40260       -2.41402        0.04578
C          2.15417       -3.67686        0.17622
C          3.22026       -3.78042        1.02839
C          1.81385       -4.87959       -0.50701
N          3.95630       -4.89635        1.24602
N          0.81920       -5.05581       -1.38069
C          2.58241       -6.06807       -0.28659
C          3.67913       -6.01492        0.63331
S          0.89477       -6.59668       -1.83969
N          2.15213       -7.11506       -0.99054
C          4.52407       -7.16314        0.96113
N          4.67646       -7.69826        2.13343
S          5.43464       -7.92399       -0.30794
C          5.53927       -8.74285        2.08232
C          6.07460       -9.02641        0.85565
C          6.99734      -10.08900        0.51663
S          8.25281       -9.88759       -0.65786
C          7.06496      -11.35697        1.02582
C          8.83328      -11.48248       -0.46727
S          6.11928      -12.25147        2.18595
C          8.10493      -12.16061        0.47034
C          7.11360      -13.66738        1.90922
C          8.09686      -13.49456        1.01278
H         -0.54361        0.93510        0.00000
H          1.93245        0.93323       -0.01097
H         -1.76615       -1.21136       -0.00018
H          3.16287       -1.19311        0.00205
H         -0.53410       -3.33775        0.01621
H          3.51909       -2.91963        1.61428
H          5.78502       -9.27954        2.98726
H          9.66109      -11.83947       -1.05574
H          6.87429      -14.57014        2.44636
H          8.78772      -14.27271        0.72822
$end

$opt
CONSTRAINT
tors 4 6 7 8 40.74584
tors 10 13 16 18 -120.00000
tors 18 20 21 22 38.09146
ENDCONSTRAINT
$end
