$comment
   OPTIMIZATION
$end

$rem
   JOBTYPE OPT
   EXCHANGE omegaB97X-D
   BASIS cc-pVTZ
$end

$molecule
   0 1
C          0.00000        0.00000        0.00000
C          1.38581        0.00000        0.00000
C         -0.68441       -1.20612       -0.00000
C          2.08122       -1.19691        0.02084
C          0.00906       -2.40357        0.01672
C          1.40260       -2.41402        0.04578
C          2.15417       -3.67686        0.17622
C          3.22026       -3.78042        1.02839
C          1.81385       -4.87959       -0.50701
N          3.95630       -4.89635        1.24602
N          0.81920       -5.05581       -1.38069
C          2.58241       -6.06807       -0.28659
C          3.67913       -6.01492        0.63331
S          0.89477       -6.59668       -1.83969
N          2.15213       -7.11506       -0.99054
C          4.52407       -7.16314        0.96113
N          4.89356       -7.53423        2.14841
S          5.11817       -8.16303       -0.32954
C          5.68173       -8.63586        2.08989
C          5.93822       -9.13106        0.84063
C          6.72441      -10.29618        0.49441
S          7.71617      -10.35816       -0.92292
C          6.84224      -11.47946        1.17084
C          8.25514      -11.94748       -0.60587
S          6.12077      -12.12632        2.62046
C          7.70909      -12.42869        0.55160
C          6.97483      -13.63645        2.37523
C          7.75704      -13.66676        1.28551
H         -0.54361        0.93510        0.00000
H          1.93245        0.93323       -0.01097
H         -1.76615       -1.21136       -0.00018
H          3.16287       -1.19311        0.00205
H         -0.53410       -3.33775        0.01621
H          3.51909       -2.91963        1.61428
H          6.08690       -9.05371        3.00016
H          8.92682      -12.44505       -1.28431
H          6.81402      -14.43275        3.08292
H          8.34003      -14.52631        0.99385
$end

$opt
CONSTRAINT
tors 4 6 7 8 40.74584
tors 10 13 16 18 -135.00000
tors 18 20 21 22 38.09146
ENDCONSTRAINT
$end
