$comment
   OPTIMIZATION
$end

$rem
   JOBTYPE OPT
   EXCHANGE omegaB97X-D
   BASIS cc-pVTZ
$end

$molecule
   0 1
C          0.00000        0.00000        0.00000
C          1.38581        0.00000        0.00000
C         -0.68441       -1.20612       -0.00000
C          2.08122       -1.19691        0.02084
C          0.00906       -2.40357        0.01672
C          1.40260       -2.41402        0.04578
C          2.15417       -3.67686        0.17622
C          3.22026       -3.78042        1.02839
C          1.81385       -4.87959       -0.50701
N          3.95630       -4.89635        1.24602
N          0.81920       -5.05581       -1.38069
C          2.58241       -6.06807       -0.28659
C          3.67913       -6.01492        0.63331
S          0.89477       -6.59668       -1.83969
N          2.15213       -7.11506       -0.99054
C          4.52407       -7.16314        0.96113
N          5.81808       -7.16517        1.05817
S          3.77138       -8.70019        1.26032
C          6.28013       -8.40141        1.36870
C          5.33694       -9.38214        1.51098
C          5.54982      -10.77174        1.85618
S          4.59894      -12.05119        1.18162
C          6.47898      -11.30890        2.70454
C          5.43309      -13.26822        2.04182
S          7.71211      -10.63633        3.73769
C          6.41962      -12.72981        2.82050
C          8.11908      -12.24392        4.30347
C          7.39058      -13.23029        3.75884
H         -0.54361        0.93510        0.00000
H          1.93245        0.93323       -0.01097
H         -1.76615       -1.21136       -0.00018
H          3.16287       -1.19311        0.00205
H         -0.53410       -3.33775        0.01621
H          3.51909       -2.91963        1.61428
H          7.34346       -8.56771        1.46369
H          5.15092      -14.30240        1.94241
H          8.89512      -12.34131        5.04444
H          7.51549      -14.27203        4.00973
$end

$opt
CONSTRAINT
tors 4 6 7 8 40.74584
tors 10 13 16 18 135.00000
tors 18 20 21 22 38.09146
ENDCONSTRAINT
$end
