$comment
   OPTIMIZATION
$end

$rem
   JOBTYPE OPT
   EXCHANGE omegaB97X-D
   BASIS cc-pVTZ
$end

$molecule
   0 1
C          0.00000        0.00000        0.00000
C          1.38581        0.00000        0.00000
C         -0.68441       -1.20612       -0.00000
C          2.08122       -1.19691        0.02084
C          0.00906       -2.40357        0.01672
C          1.40260       -2.41402        0.04578
C          2.15417       -3.67686        0.17622
C          3.22026       -3.78042        1.02839
C          1.81385       -4.87959       -0.50701
N          3.95630       -4.89635        1.24602
N          0.81920       -5.05581       -1.38069
C          2.58241       -6.06807       -0.28659
C          3.67913       -6.01492        0.63331
S          0.89477       -6.59668       -1.83969
N          2.15213       -7.11506       -0.99054
C          4.52407       -7.16314        0.96113
N          5.32810       -7.26407        1.97464
S          4.48489       -8.55661       -0.07583
C          5.96540       -8.46076        1.97203
C          5.66162       -9.30618        0.94020
C          6.17596      -10.63905        0.70707
S          6.49515      -11.24515       -0.88258
C          6.49977      -11.60242        1.62285
C          7.03440      -12.76177       -0.31160
S          6.40360      -11.70685        3.36072
C          6.98676      -12.81688        1.05374
C          7.00343      -13.35195        3.29804
C          7.26767      -13.80490        2.06302
H         -0.54361        0.93510        0.00000
H          1.93245        0.93323       -0.01097
H         -1.76615       -1.21136       -0.00018
H          3.16287       -1.19311        0.00205
H         -0.53410       -3.33775        0.01621
H          3.51909       -2.91963        1.61428
H          6.68600       -8.68570        2.74500
H          7.34255      -13.52977       -1.00025
H          7.10615      -13.89179        4.22474
H          7.63499      -14.79834        1.85828
$end

$opt
CONSTRAINT
tors 4 6 7 8 40.74584
tors 10 13 16 18 -165.00000
tors 18 20 21 22 38.09146
ENDCONSTRAINT
$end
