$comment
   OPTIMIZATION
$end

$rem
   JOBTYPE OPT
   EXCHANGE omegaB97X-D
   BASIS cc-pVTZ
$end

$molecule
   0 1
C          0.00000        0.00000        0.00000
C          1.38581        0.00000        0.00000
C         -0.68441       -1.20612       -0.00000
C          2.08122       -1.19691        0.02084
C          0.00906       -2.40357        0.01672
C          1.40260       -2.41402        0.04578
C          2.15417       -3.67686        0.17622
C          3.22026       -3.78042        1.02839
C          1.81385       -4.87959       -0.50701
N          3.95630       -4.89635        1.24602
N          0.81920       -5.05581       -1.38069
C          2.58241       -6.06807       -0.28659
C          3.67913       -6.01492        0.63331
S          0.89477       -6.59668       -1.83969
N          2.15213       -7.11506       -0.99054
C          4.52407       -7.16314        0.96113
N          5.76956       -7.12517        1.32334
S          3.84191       -8.75863        0.87383
C          6.25021       -8.37387        1.54232
C          5.37219       -9.40403        1.34347
C          5.61370      -10.82006        1.52228
S          4.91245      -12.01836        0.48857
C          6.39260      -11.44257        2.45897
C          5.64609      -13.31773        1.31943
S          7.34299      -10.88698        3.81115
C          6.41592      -12.86545        2.35494
C          7.74636      -12.54419        4.21240
C          7.21509      -13.46398        3.39264
H         -0.54361        0.93510        0.00000
H          1.93245        0.93323       -0.01097
H         -1.76615       -1.21136       -0.00018
H          3.16287       -1.19311        0.00205
H         -0.53410       -3.33775        0.01621
H          3.51909       -2.91963        1.61428
H          7.28273       -8.50751        1.83108
H          5.46605      -14.33492        1.01625
H          8.36467      -12.72251        5.07650
H          7.36382      -14.52579        3.51184
$end

$opt
CONSTRAINT
tors 4 6 7 8 40.74584
tors 10 13 16 18 150.00000
tors 18 20 21 22 38.09146
ENDCONSTRAINT
$end
