$comment
   OPTIMIZATION
$end

$rem
   JOBTYPE OPT
   EXCHANGE omegaB97X-D
   BASIS cc-pVTZ
$end

$molecule
   0 1
C          0.00000        0.00000        0.00000
C          1.38581        0.00000        0.00000
C         -0.68441       -1.20612       -0.00000
C          2.08122       -1.19691        0.02084
C          0.00906       -2.40357        0.01672
C          1.40260       -2.41402        0.04578
C          2.15417       -3.67686        0.17622
C          1.60210       -4.76796        0.79119
C          3.45738       -3.88621       -0.35950
N          2.19078       -5.97909        0.93629
N          4.21216       -2.99843       -1.01208
C          4.09258       -5.16187       -0.21466
C          3.38643       -6.20651        0.46498
S          5.57837       -3.76247       -1.38675
N          5.30661       -5.21414       -0.76262
C          3.91578       -7.55654        0.65728
N          5.11772       -7.95984        0.38055
S          2.87431       -8.77944        1.31942
C          5.26895       -9.27463        0.67497
C          4.16999       -9.91149        1.18328
C          4.06098      -11.29407        1.59805
S          2.61914      -12.22231        1.36201
C          5.00394      -12.08332        2.19765
C          3.28047      -13.62794        2.07179
S          6.63294      -11.81527        2.75876
C          4.56926      -13.41375        2.47506
C          6.70311      -13.46273        3.35125
C          5.58822      -14.18005        3.14456
H         -0.54361        0.93510        0.00000
H          1.93245        0.93323       -0.01097
H         -1.76615       -1.21136       -0.00018
H          3.16287       -1.19311        0.00205
H         -0.53410       -3.33775        0.01621
H          0.59776       -4.70190        1.19174
H          6.21304       -9.76230        0.47947
H          2.69157      -14.52414        2.16682
H          7.60341      -13.78773        3.84583
H          5.47266      -15.20584        3.45788
$end

$opt
CONSTRAINT
tors 4 6 7 8 150.00000
tors 10 13 16 18 6.77157
tors 18 20 21 22 38.09146
ENDCONSTRAINT
$end
