$comment
   OPTIMIZATION
$end

$rem
   JOBTYPE OPT
   EXCHANGE omegaB97X-D
   BASIS cc-pVTZ
$end

$molecule
   0 1
C          0.00000        0.00000        0.00000
C          1.38581        0.00000        0.00000
C         -0.68441       -1.20612       -0.00000
C          2.08122       -1.19691        0.02084
C          0.00906       -2.40357        0.01672
C          1.40260       -2.41402        0.04578
C          2.15417       -3.67686        0.17622
C          3.51939       -3.68027        0.27449
C          1.54343       -4.96058        0.26702
N          4.30086       -4.77578        0.42799
N          0.23802       -5.23723        0.21156
C          2.35667       -6.12837        0.43029
C          3.77807       -5.96897        0.50810
S          0.11251       -6.83470        0.36319
N          1.65284       -7.25826        0.50001
C          4.71325       -7.07785        0.69682
N          4.42302       -8.34249        0.67873
S          6.39086       -6.72210        0.97543
C          5.52772       -9.09773        0.89660
C          6.69758       -8.41643        1.09392
C          8.01543       -8.96873        1.32567
S          9.15927       -8.22379        2.39005
C          8.56974      -10.10517        0.80331
C         10.35180       -9.41502        2.11479
S          8.02889      -11.30464       -0.34084
C          9.90145      -10.36753        1.24337
C          9.57313      -12.12323       -0.21717
C         10.44489      -11.54973        0.62628
H         -0.54361        0.93510        0.00000
H          1.93245        0.93323       -0.01097
H         -1.76615       -1.21136       -0.00018
H          3.16287       -1.19311        0.00205
H         -0.53410       -3.33775        0.01621
H          4.05707       -2.74009        0.25271
H          5.44244      -10.17424        0.93142
H         11.31489       -9.34817        2.59126
H          9.73274      -13.00232       -0.81924
H         11.43875      -11.92912        0.80539
$end

$opt
CONSTRAINT
tors 4 6 7 8 0.00000
tors 10 13 16 18 6.77157
tors 18 20 21 22 38.09146
ENDCONSTRAINT
$end
