$comment
   OPTIMIZATION
$end

$rem
   JOBTYPE OPT
   EXCHANGE omegaB97X-D
   BASIS cc-pVTZ
$end

$molecule
   0 1
C          0.00000        0.00000        0.00000
C          1.38581        0.00000        0.00000
C         -0.68441       -1.20612       -0.00000
C          2.08122       -1.19691        0.02084
C          0.00906       -2.40357        0.01672
C          1.40260       -2.41402        0.04578
C          2.15417       -3.67686        0.17622
C          1.93928       -4.52182        1.23137
C          3.09856       -4.14348       -0.78273
N          2.54975       -5.71450        1.42955
N          3.48261       -3.52455       -1.90216
C          3.75174       -5.40321       -0.58730
C          3.42546       -6.17175        0.57663
S          4.56153       -4.49307       -2.60114
N          4.60825       -5.71222       -1.56084
C          4.00495       -7.48072        0.87756
N          4.97327       -8.06061        0.23728
S          3.37155       -8.39100        2.21501
C          5.25597       -9.27182        0.77697
C          4.49570       -9.64877        1.85009
C          4.59717      -10.86921        2.62190
S          3.20912      -11.67396        3.27146
C          5.71803      -11.58031        2.95295
C          4.13288      -12.92352        3.98012
S          7.42515      -11.35181        2.68113
C          5.46579      -12.75063        3.72926
C          7.76893      -12.80255        3.60158
C          6.68512      -13.43032        4.08277
H         -0.54361        0.93510        0.00000
H          1.93245        0.93323       -0.01097
H         -1.76615       -1.21136       -0.00018
H          3.16287       -1.19311        0.00205
H         -0.53410       -3.33775        0.01621
H          1.20748       -4.25709        1.98496
H          6.02848       -9.88672        0.33826
H          3.65638      -13.70395        4.54837
H          8.79918      -13.08735        3.73661
H          6.73159      -14.33089        4.67489
$end

$opt
CONSTRAINT
tors 4 6 7 8 120.00000
tors 10 13 16 18 6.77157
tors 18 20 21 22 38.09146
ENDCONSTRAINT
$end
