$comment
   OPTIMIZATION
$end

$rem
   JOBTYPE OPT
   EXCHANGE omegaB97X-D
   BASIS cc-pVTZ
$end

$molecule
   0 1
C          0.00000        0.00000        0.00000
C          1.38581        0.00000        0.00000
C         -0.68441       -1.20612       -0.00000
C          2.08122       -1.19691        0.02084
C          0.00906       -2.40357        0.01672
C          1.40260       -2.41402        0.04578
C          2.15417       -3.67686        0.17622
C          2.59818       -4.35273       -0.92810
C          2.52375       -4.25771        1.42330
N          3.32014       -5.49865       -0.91963
N          2.23118       -3.79983        2.64332
C          3.28787       -5.46901        1.44838
C          3.67143       -6.06394        0.20308
S          2.89056       -4.83866        3.68097
N          3.56081       -5.89748        2.68077
C          4.46965       -7.28499        0.09500
N          4.81766       -8.06719        1.07015
S          5.03237       -7.78334       -1.47138
C          5.56319       -9.10541        0.61792
C          5.80773       -9.13419       -0.72784
C          6.55053      -10.12949       -1.47154
S          7.54742       -9.72191       -2.82665
C          6.61880      -11.47940       -1.26020
C          8.02300      -11.33952       -3.09887
S          5.86453      -12.57084       -0.12875
C          7.45210      -12.17918       -2.18317
C          6.66128      -13.92685       -0.90109
C          7.44810      -13.59802       -1.93697
H         -0.54361        0.93510        0.00000
H          1.93245        0.93323       -0.01097
H         -1.76615       -1.21136       -0.00018
H          3.16287       -1.19311        0.00205
H         -0.53410       -3.33775        0.01621
H          2.39127       -3.95533       -1.91439
H          5.94667       -9.83430        1.31721
H          8.67898      -11.58897       -3.91524
H          6.46584      -14.91579       -0.52086
H          7.99929      -14.31954       -2.51954
$end

$opt
CONSTRAINT
tors 4 6 7 8 -90.00000
tors 10 13 16 18 6.77157
tors 18 20 21 22 38.09146
ENDCONSTRAINT
$end
