$end

@@@

$comment
   HIRSHFELD_BASAL
$end

$rem
   SYM_IGNORE TRUE
   JOBTYPE SP
   EXCHANGE omegaB97X-D
   BASIS cc-pVTZ
   HIRSHITER TRUE
