$comment
   OPTIMIZATION
$end

$rem
   JOBTYPE OPT
   EXCHANGE omegaB97X-D
   BASIS cc-pVTZ
$end

$molecule
   0 1
C          0.00000        0.00000        0.00000
C          1.38581        0.00000        0.00000
C         -0.68441       -1.20612       -0.00000
C          2.08122       -1.19691        0.02084
C          0.00906       -2.40357        0.01672
C          1.40260       -2.41402        0.04578
C          2.15417       -3.67686        0.17622
C          3.22026       -3.78042        1.02839
C          1.81385       -4.87959       -0.50701
N          3.95630       -4.89635        1.24602
N          0.81920       -5.05581       -1.38069
C          2.58241       -6.06807       -0.28659
C          3.67913       -6.01492        0.63331
S          0.89477       -6.59668       -1.83969
N          2.15213       -7.11506       -0.99054
C          4.52407       -7.16314        0.96113
N          4.50316       -8.32523        0.38407
S          5.68858       -7.00931        2.24129
C          5.41319       -9.16121        0.94193
C          6.15262       -8.64994        1.97321
C          7.19657       -9.31133        2.72699
S          8.87698       -8.99340        2.45987
C          7.07317      -10.23408        3.72944
C          9.38571      -10.09361        3.66305
S          5.71988      -11.03656        4.48108
C          8.31375      -10.68908        4.26784
C          6.82053      -11.95814        5.48573
C          8.11971      -11.68903        5.28577
H         -0.54361        0.93510        0.00000
H          1.93245        0.93323       -0.01097
H         -1.76615       -1.21136       -0.00018
H          3.16287       -1.19311        0.00205
H         -0.53410       -3.33775        0.01621
H          3.51909       -2.91963        1.61428
H          5.50049      -10.17587        0.58111
H         10.43322      -10.25393        3.85291
H          6.40304      -12.67607        6.17206
H          8.91900      -12.17829        5.82013
$end

$opt
CONSTRAINT
tors 4 6 7 8 40.74584
tors 10 13 16 18 6.77157
tors 18 20 21 22 -75.00000
ENDCONSTRAINT
$end
