$comment
   OPTIMIZATION
$end

$rem
   JOBTYPE OPT
   EXCHANGE omegaB97X-D
   BASIS cc-pVTZ
$end

$molecule
   0 1
C          0.00000        0.00000        0.00000
C          1.38508        0.00000        0.00000
N         -0.72771       -1.11322        0.00000
C          2.04720       -1.21160       -0.00386
C         -0.08136       -2.27149       -0.00595
C          1.30925       -2.38901       -0.00649
C          1.96927       -3.70493        0.02329
C          3.04486       -3.95576        0.82999
C          1.55200       -4.80802       -0.77739
N          3.72631       -5.12438        0.91627
N          0.54624       -4.84522       -1.65350
C          2.26335       -6.04410       -0.69858
C          3.37925       -6.16090        0.19241
S          0.53898       -6.32692       -2.28381
N          1.78433       -6.98642       -1.50573
C          4.16725       -7.35995        0.35676
S          4.76196       -8.36253       -0.92267
C          4.56573       -7.88204        1.56583
C          5.52850       -9.45559        0.16334
S          4.32989       -7.39562        3.20992
C          5.33775       -9.06779        1.47321
C          6.27030      -10.60724       -0.30530
C          5.26110       -8.77694        3.74882
C          5.72710       -9.56591        2.76450
N          6.87149      -11.44224        0.49268
S          6.44047      -11.00047       -1.99409
C          7.49832      -12.42827       -0.20945
C          7.38339      -12.36458       -1.55841
H         -0.55134        0.93273        0.00000
H          1.92494        0.93597       -0.01293
H          3.12873       -1.25416       -0.02668
H         -0.69553       -3.16348       -0.00579
H          3.41622       -3.17720        1.48423
H          5.41429       -8.91723        4.80762
H          6.32078      -10.45392        2.89991
H          8.04369      -13.19518        0.31909
H          7.79241      -13.02809       -2.29996
$end

$opt
CONSTRAINT
tors 4 6 7 8 42.24575
tors 10 13 16 17 -135.00000
tors 17 19 22 25 179.21698
ENDCONSTRAINT
$end
