$comment
   OPTIMIZATION
$end

$rem
   JOBTYPE OPT
   EXCHANGE omegaB97X-D
   BASIS cc-pVTZ
$end

$molecule
   0 1
C          0.00000        0.00000        0.00000
C          1.38508        0.00000        0.00000
N         -0.72771       -1.11322        0.00000
C          2.04720       -1.21160       -0.00386
C         -0.08136       -2.27149       -0.00595
C          1.30925       -2.38901       -0.00649
C          1.96927       -3.70493        0.02329
C          3.04486       -3.95576        0.82999
C          1.55200       -4.80802       -0.77739
N          3.72631       -5.12438        0.91627
N          0.54624       -4.84522       -1.65350
C          2.26335       -6.04410       -0.69858
C          3.37925       -6.16090        0.19241
S          0.53898       -6.32692       -2.28381
N          1.78433       -6.98642       -1.50573
C          4.16725       -7.35995        0.35676
S          5.84422       -7.41772        0.78130
C          3.69345       -8.64234        0.20118
C          5.89054       -9.13773        0.74650
S          2.14525       -9.29964       -0.20660
C          4.65656       -9.65993        0.41921
C          7.09911       -9.87774        1.04303
C          2.80274      -10.91755       -0.08143
C          4.10588      -10.97664        0.24544
N          7.15920      -11.17842        1.03787
S          8.60866       -9.10459        1.44189
C          8.41079      -11.61384        1.35743
C          9.33052      -10.65074        1.60941
H         -0.55134        0.93273        0.00000
H          1.92494        0.93597       -0.01293
H          3.12873       -1.25416       -0.02668
H         -0.69553       -3.16348       -0.00579
H          3.41622       -3.17720        1.48423
H          2.14956      -11.75746       -0.26064
H          4.68074      -11.87814        0.37272
H          8.61312      -12.67331        1.39626
H         10.36600      -10.76402        1.87846
$end

$opt
CONSTRAINT
tors 4 6 7 8 42.24575
tors 10 13 16 17 -30.00000
tors 17 19 22 25 179.21698
ENDCONSTRAINT
$end
