$comment
   OPTIMIZATION
$end

$rem
   JOBTYPE OPT
   EXCHANGE omegaB97X-D
   BASIS cc-pVTZ
$end

$molecule
   0 1
C          0.00000        0.00000        0.00000
C          1.38508        0.00000        0.00000
N         -0.72771       -1.11322        0.00000
C          2.04720       -1.21160       -0.00386
C         -0.08136       -2.27149       -0.00595
C          1.30925       -2.38901       -0.00649
C          1.96927       -3.70493        0.02329
C          3.04486       -3.95576        0.82999
C          1.55200       -4.80802       -0.77739
N          3.72631       -5.12438        0.91627
N          0.54624       -4.84522       -1.65350
C          2.26335       -6.04410       -0.69858
C          3.37925       -6.16090        0.19241
S          0.53898       -6.32692       -2.28381
N          1.78433       -6.98642       -1.50573
C          4.16725       -7.35995        0.35676
S          3.91759       -8.85630       -0.47654
C          5.24284       -7.48644        1.20548
C          5.24086       -9.62433        0.31140
S          6.02523       -6.40518        2.30730
C          5.86192       -8.76203        1.19074
C          5.60656      -10.99715        0.03244
C          7.16320       -7.66629        2.73181
C          6.97878       -8.83533        2.09320
N          6.61068      -11.59852        0.60298
S          4.74009      -11.99572       -1.10233
C          6.73509      -12.87992        0.15496
C          5.82399      -13.28065       -0.76496
H         -0.55134        0.93273        0.00000
H          1.92494        0.93597       -0.01293
H          3.12873       -1.25416       -0.02668
H         -0.69553       -3.16348       -0.00579
H          3.41622       -3.17720        1.48423
H          7.93306       -7.44725        3.45538
H          7.57866       -9.72060        2.21891
H          7.52823      -13.50399        0.53756
H          5.73469      -14.23656       -1.25046
$end

$opt
CONSTRAINT
tors 4 6 7 8 42.24575
tors 10 13 16 17 180.00000
tors 17 19 22 25 179.21698
ENDCONSTRAINT
$end
