$comment
   OPTIMIZATION
$end

$rem
   JOBTYPE OPT
   EXCHANGE omegaB97X-D
   BASIS cc-pVTZ
$end

$molecule
   0 1
C          0.00000        0.00000        0.00000
C          1.38508        0.00000        0.00000
N         -0.72771       -1.11322        0.00000
C          2.04720       -1.21160       -0.00386
C         -0.08136       -2.27149       -0.00595
C          1.30925       -2.38901       -0.00649
C          1.96927       -3.70493        0.02329
C          3.04486       -3.95576        0.82999
C          1.55200       -4.80802       -0.77739
N          3.72631       -5.12438        0.91627
N          0.54624       -4.84522       -1.65350
C          2.26335       -6.04410       -0.69858
C          3.37925       -6.16090        0.19241
S          0.53898       -6.32692       -2.28381
N          1.78433       -6.98642       -1.50573
C          4.16725       -7.35995        0.35676
S          5.06496       -8.15878       -0.88894
C          4.32237       -8.04556        1.53959
C          5.63115       -9.38639        0.17604
S          3.72053       -7.80508        3.14433
C          5.14886       -9.19456        1.45397
C          6.50661      -10.44775       -0.27480
C          4.57681       -9.23656        3.67656
C          5.27651       -9.86847        2.71759
N          6.96111      -11.38075        0.51157
S          7.04969      -10.59051       -1.92413
C          7.76660      -12.24615       -0.16700
C          7.93858      -11.98989       -1.48674
H         -0.55134        0.93273        0.00000
H          1.92494        0.93597       -0.01293
H          3.12873       -1.25416       -0.02668
H         -0.69553       -3.16348       -0.00579
H          3.41622       -3.17720        1.48423
H          4.50734       -9.52615        4.71363
H          5.86703      -10.75832        2.85472
H          8.22089      -13.07363        0.35627
H          8.52538      -12.53353       -2.20616
$end

$opt
CONSTRAINT
tors 4 6 7 8 42.24575
tors 10 13 16 17 -120.00000
tors 17 19 22 25 179.21698
ENDCONSTRAINT
$end
