$comment
   OPTIMIZATION
$end

$rem
   JOBTYPE OPT
   EXCHANGE omegaB97X-D
   BASIS cc-pVTZ
$end

$molecule
   0 1
C          0.00000        0.00000        0.00000
C          1.38508        0.00000        0.00000
N         -0.72771       -1.11322        0.00000
C          2.04720       -1.21160       -0.00386
C         -0.08136       -2.27149       -0.00595
C          1.30925       -2.38901       -0.00649
C          1.96927       -3.70493        0.02329
C          3.04486       -3.95576        0.82999
C          1.55200       -4.80802       -0.77739
N          3.72631       -5.12438        0.91627
N          0.54624       -4.84522       -1.65350
C          2.26335       -6.04410       -0.69858
C          3.37925       -6.16090        0.19241
S          0.53898       -6.32692       -2.28381
N          1.78433       -6.98642       -1.50573
C          4.16725       -7.35995        0.35676
S          5.71635       -7.45493        1.12295
C          3.79546       -8.61293       -0.07338
C          5.84618       -9.15105        0.86201
S          2.40057       -9.22608       -0.89412
C          4.73481       -9.63775        0.20589
C          6.99595       -9.90911        1.30871
C          3.08833      -10.83573       -0.85375
C          4.29339      -10.92314       -0.26324
N          7.11410      -11.19444        1.13726
S          8.34982       -9.18060        2.12842
C          8.28729      -11.65386        1.65759
C          9.08816      -10.72447        2.23358
H         -0.55134        0.93273        0.00000
H          1.92494        0.93597       -0.01293
H          3.12873       -1.25416       -0.02668
H         -0.69553       -3.16348       -0.00579
H          3.41622       -3.17720        1.48423
H          2.52662      -11.65002       -1.28458
H          4.86788      -11.82542       -0.13991
H          8.52407      -12.70489        1.59281
H         10.04670      -10.86089        2.70265
$end

$opt
CONSTRAINT
tors 4 6 7 8 42.24575
tors 10 13 16 17 -15.00000
tors 17 19 22 25 179.21698
ENDCONSTRAINT
$end
