$comment
   OPTIMIZATION
$end

$rem
   JOBTYPE OPT
   EXCHANGE omegaB97X-D
   BASIS cc-pVTZ
$end

$molecule
   0 1
C          0.00000        0.00000        0.00000
C          1.38508        0.00000        0.00000
N         -0.72771       -1.11322        0.00000
C          2.04720       -1.21160       -0.00386
C         -0.08136       -2.27149       -0.00595
C          1.30925       -2.38901       -0.00649
C          1.96927       -3.70493        0.02329
C          3.04486       -3.95576        0.82999
C          1.55200       -4.80802       -0.77739
N          3.72631       -5.12438        0.91627
N          0.54624       -4.84522       -1.65350
C          2.26335       -6.04410       -0.69858
C          3.37925       -6.16090        0.19241
S          0.53898       -6.32692       -2.28381
N          1.78433       -6.98642       -1.50573
C          4.16725       -7.35995        0.35676
S          5.52053       -7.54288        1.42023
C          3.95212       -8.54275       -0.31250
C          5.77891       -9.18153        0.96217
S          2.79277       -9.05041       -1.49294
C          4.85558       -9.58389        0.01979
C          6.84015       -9.97998        1.53874
C          3.52773      -10.63921       -1.52682
C          4.58224      -10.79410       -0.70674
N          7.04965      -11.22528        1.22131
S          7.95451       -9.35860        2.72520
C          8.10468      -11.73855        1.91532
C          8.72211      -10.89096        2.77399
H         -0.55134        0.93273        0.00000
H          1.92494        0.93597       -0.01293
H          3.12873       -1.25416       -0.02668
H         -0.69553       -3.16348       -0.00579
H          3.41622       -3.17720        1.48423
H          3.10768      -11.39053       -2.17743
H          5.15725      -11.69659       -0.58741
H          8.39676      -12.76577        1.75906
H          9.56404      -11.08026        3.41646
$end

$opt
CONSTRAINT
tors 4 6 7 8 42.24575
tors 10 13 16 17 0.00000
tors 17 19 22 25 179.21698
ENDCONSTRAINT
$end
