$comment
   OPTIMIZATION
$end

$rem
   JOBTYPE OPT
   EXCHANGE omegaB97X-D
   BASIS cc-pVTZ
$end

$molecule
   0 1
C          0.00000        0.00000        0.00000
C          1.38508        0.00000        0.00000
N         -0.72771       -1.11322        0.00000
C          2.04720       -1.21160       -0.00386
C         -0.08136       -2.27149       -0.00595
C          1.30925       -2.38901       -0.00649
C          1.96927       -3.70493        0.02329
C          3.04486       -3.95576        0.82999
C          1.55200       -4.80802       -0.77739
N          3.72631       -5.12438        0.91627
N          0.54624       -4.84522       -1.65350
C          2.26335       -6.04410       -0.69858
C          3.37925       -6.16090        0.19241
S          0.53898       -6.32692       -2.28381
N          1.78433       -6.98642       -1.50573
C          4.16725       -7.35995        0.35676
S          3.59390       -8.98145        0.16239
C          5.50151       -7.38685        0.69180
C          5.12923       -9.66813        0.52707
S          6.67275       -6.15595        1.02096
C          6.06094       -8.68598        0.79131
C          5.34760      -11.09939        0.52814
C          7.88819       -7.38795        1.28641
C          7.45513       -8.65279        1.14100
N          6.50112      -11.64537        0.78643
S          4.08593      -12.24972        0.18099
C          6.42898      -13.00463        0.71285
C          5.21558      -13.52087        0.39963
H         -0.55134        0.93273        0.00000
H          1.92494        0.93597       -0.01293
H          3.12873       -1.25416       -0.02668
H         -0.69553       -3.16348       -0.00579
H          3.41622       -3.17720        1.48423
H          8.89118       -7.08031        1.53857
H          8.05517       -9.53904        1.25878
H          7.31187      -13.59645        0.90036
H          4.93272      -14.55279        0.28755
$end

$opt
CONSTRAINT
tors 4 6 7 8 42.24575
tors 10 13 16 17 150.00000
tors 17 19 22 25 179.21698
ENDCONSTRAINT
$end
