$comment
   OPTIMIZATION
$end

$rem
   JOBTYPE OPT
   EXCHANGE omegaB97X-D
   BASIS cc-pVTZ
$end

$molecule
   0 1
C          0.00000        0.00000        0.00000
C          1.38508        0.00000        0.00000
N         -0.72771       -1.11322        0.00000
C          2.04720       -1.21160       -0.00386
C         -0.08136       -2.27149       -0.00595
C          1.30925       -2.38901       -0.00649
C          1.96927       -3.70493        0.02329
C          3.04486       -3.95576        0.82999
C          1.55200       -4.80802       -0.77739
N          3.72631       -5.12438        0.91627
N          0.54624       -4.84522       -1.65350
C          2.26335       -6.04410       -0.69858
C          3.37925       -6.16090        0.19241
S          0.53898       -6.32692       -2.28381
N          1.78433       -6.98642       -1.50573
C          4.16725       -7.35995        0.35676
S          3.72176       -8.94425       -0.17926
C          5.39950       -7.41625        0.96635
C          5.17359       -9.65481        0.41156
S          6.41742       -6.22951        1.70847
C          5.98269       -8.70817        1.00463
C          5.45076      -11.06801        0.26247
C          7.60261       -7.46977        2.05873
C          7.26763       -8.70629        1.64969
N          6.54623      -11.62936        0.68703
S          4.34478      -12.17371       -0.50554
C          6.55248      -12.96460        0.41270
C          5.45794      -13.44715       -0.22455
H         -0.55134        0.93273        0.00000
H          1.92494        0.93597       -0.01293
H          3.12873       -1.25416       -0.02668
H         -0.69553       -3.16348       -0.00579
H          3.41622       -3.17720        1.48423
H          8.51413       -7.18776        2.56252
H          7.86803       -9.59177        1.77140
H          7.40092      -13.56487        0.70381
H          5.25201      -14.45593       -0.53665
$end

$opt
CONSTRAINT
tors 4 6 7 8 42.24575
tors 10 13 16 17 165.00000
tors 17 19 22 25 179.21698
ENDCONSTRAINT
$end
