$comment
   OPTIMIZATION
$end

$rem
   JOBTYPE OPT
   EXCHANGE omegaB97X-D
   BASIS cc-pVTZ
$end

$molecule
   0 1
C         -1.63230       -0.22860        0.33740
C         -1.09630        0.85210       -0.34850
C         -0.75950       -1.17850        0.83330
C          0.28580        0.93710       -0.51850
N          0.58150       -1.11690        0.68320
C          1.10580       -0.07020       -0.00660
C          2.56300       -0.03710       -0.17720
N          3.20120        1.18320       -0.27570
C          3.37910       -1.19880       -0.28830
C          4.56660        1.27340       -0.41950
N          2.99160       -2.48820       -0.28200
C          4.88150       -1.04950       -0.46650
C          5.49770        0.23170       -0.50590
S          4.34200       -3.41720       -0.44490
N          5.49210       -2.24430       -0.59260
C          6.94810        0.43470       -0.63760
S          8.05160       -0.65530        0.11140
C          7.65650        1.45280       -1.24260
C          9.46150        0.15470       -0.45120
N          7.05480        2.51020       -1.86930
C          9.09840        1.29170       -1.14870
C         10.78640       -0.36990       -0.17960
C          7.97480        3.37830       -2.36830
N          9.99250        2.18140       -1.67560
C         11.92280       -0.23880       -0.96070
S         11.13980       -1.28320        1.23960
C          9.36050        3.22430       -2.27550
C         13.06000       -0.90240       -0.40880
C         12.76720       -1.51530        0.78660
H         -2.70180       -0.32930        0.48350
H         -1.74590        1.62350       -0.75190
H         -1.12220       -2.04430        1.37990
H          0.71560        1.77750       -1.05590
H          4.90980        2.30820       -0.45360
H          7.55720        4.24850       -2.86740
H         11.94180        0.30080       -1.90040
H         10.02130        3.97450       -2.70030
H         14.04100       -0.92940       -0.86690
H         13.43020       -2.08740        1.42100
$end

@@@

$comment
   HIRSHFELD_BASAL
$end

$rem
   SYM_IGNORE TRUE
   JOBTYPE SP
   EXCHANGE omegaB97X-D
   BASIS cc-pVTZ
   HIRSHITER TRUE
$end

$molecule
   READ
$end
