$comment
   OPTIMIZATION
$end

$rem
   JOBTYPE OPT
   EXCHANGE omegaB97X-D
   BASIS cc-pVTZ
$end

$molecule
   0 1
C          0.47990        1.54640        0.18110
C         -0.84320        1.29700        0.48890
N          1.33490        0.59110       -0.22660
C         -1.31450       -0.01330        0.38300
C          0.84460       -0.67270       -0.32080
C         -0.46840       -1.05700       -0.02860
C         -0.94930       -2.44300       -0.15270
C         -2.26300       -2.79880       -0.49920
C         -0.14280       -3.59540        0.07060
N         -2.81260       -4.05070       -0.62630
N          1.15210       -3.60310        0.43830
C         -0.70060       -5.00310       -0.08060
C         -2.06700       -5.17970       -0.43320
S          1.63410       -5.17850        0.54750
N          0.23190       -5.94870        0.14250
C         -2.72510       -6.46930       -0.58310
S         -2.28550       -7.85400        0.33260
C         -3.78660       -6.77530       -1.39740
C         -3.46360       -8.88850       -0.39270
S         -4.73430       -5.77510       -2.58160
C         -4.16730       -8.11830       -1.26980
C         -3.59360      -10.28740       -0.04770
C         -5.65370       -7.23760       -2.86960
C         -5.26110       -8.36870       -2.14390
N         -4.50380      -11.07780       -0.58800
S         -2.56720      -11.07130        1.10610
C         -4.39550      -12.35620       -0.07020
C         -3.40090      -12.54120        0.86390
H          0.89850        2.54570        0.25600
H         -1.49530        2.10200        0.80940
H         -2.35350       -0.20140        0.64370
H          1.58600       -1.38760       -0.66920
H         -2.99200       -2.01690       -0.71890
H         -6.45930       -7.17580       -3.58900
H         -5.76320       -9.32370       -2.25480
H         -5.07450      -13.12900       -0.40990
H         -3.13100      -13.43990        1.39920
$end

@@@

$comment
   HIRSHFELD_BASAL
$end

$rem
   SYM_IGNORE TRUE
   JOBTYPE SP
   EXCHANGE omegaB97X-D
   BASIS cc-pVTZ
   HIRSHITER TRUE
$end

$molecule
   READ
$end
