$comment
   OPTIMIZATION
$end

$rem
   JOBTYPE OPT
   EXCHANGE omegaB97X-D
   BASIS cc-pVTZ
$end

$molecule
   0 1
C          1.40400        1.29710        0.57760
C          0.04990        1.08470        0.80810
C          2.20870        0.23170        0.19170
C         -0.49500       -0.19640        0.66180
C          1.65700       -1.04450        0.03120
C          0.29400       -1.29690        0.27060
C         -0.30080       -2.63520        0.10030
C         -1.60950       -2.85540       -0.36100
C          0.37270       -3.86240        0.37520
N         -2.26290       -4.04420       -0.56000
N          1.62910       -4.00400        0.83960
C         -0.30820       -5.20750        0.16320
C         -1.64310       -5.24010       -0.30650
S          1.93790       -5.62180        0.96660
N          0.50190       -6.24470        0.44470
C         -2.36990       -6.48550       -0.53650
N         -2.18690       -7.62430        0.10110
S         -3.59760       -6.53890       -1.74560
C         -3.04350       -8.59220       -0.39280
C         -3.89350       -8.20010       -1.40820
C         -4.88430       -8.96860       -2.11850
S         -5.32100       -8.65590       -3.77070
C         -5.60910      -10.03340       -1.64010
C         -6.47690       -9.92680       -3.82210
S         -5.66570      -10.87230       -0.03410
C         -6.47910      -10.53080       -2.61880
C         -6.88820      -11.89930       -0.76650
C         -7.22000      -11.61730       -2.09540
H          1.83170        2.28850        0.69980
H         -0.58590        1.91380        1.10850
H          3.26980        0.38710        0.01290
H         -1.55550       -0.31750        0.87390
H          2.32340       -1.84210       -0.29110
H         -2.23620       -2.00140       -0.62380
H         -2.98500       -9.58600        0.03530
H         -7.05860      -10.13250       -4.71070
H         -7.31000      -12.67890       -0.14650
H         -7.96800      -12.18030       -2.63910
$end

@@@

$comment
   HIRSHFELD_BASAL
$end

$rem
   SYM_IGNORE TRUE
   JOBTYPE SP
   EXCHANGE omegaB97X-D
   BASIS cc-pVTZ
   HIRSHITER TRUE
$end

$molecule
   READ
$end
