$comment
   OPTIMIZATION
$end

$rem
   JOBTYPE OPT
   EXCHANGE omegaB97X-D
   BASIS cc-pVTZ
$end

$molecule
   0 1
C          0.00000        0.00000        0.00000
C          1.38508        0.00000        0.00000
N         -0.72771       -1.11322        0.00000
C          2.04720       -1.21160       -0.00386
C         -0.08136       -2.27149       -0.00595
C          1.30925       -2.38901       -0.00649
C          1.96927       -3.70493        0.02329
C          1.29744       -4.85730       -0.27882
C          3.34039       -3.88508        0.36909
N          1.81157       -6.11148       -0.26499
N          4.22445       -2.94680        0.71344
C          3.89388       -5.20164        0.39076
C          3.06584       -6.32124        0.05377
S          5.60994       -3.70880        1.01767
N          5.17585       -5.23445        0.74348
C          3.51841       -7.69259        0.03836
S          5.11239       -8.23605        0.43793
C          2.73943       -8.77626       -0.29640
C          4.72158       -9.88819        0.15600
S          1.08791       -8.95204       -0.78308
C          3.40576      -10.02635       -0.23389
C          5.69335      -10.94652        0.33429
C          1.30914      -10.68519       -0.89649
C          2.54428      -11.12065       -0.59103
N          5.42142      -12.20527        0.14184
S          7.33718      -10.64881        0.82906
C          6.51141      -12.98649        0.38638
C          7.63758      -12.33572        0.76740
H         -0.55134        0.93273        0.00000
H          1.92494        0.93597       -0.01293
H          3.12873       -1.25416       -0.02668
H         -0.69553       -3.16348       -0.00579
H          0.25565       -4.80889       -0.56939
H          0.46977      -11.29647       -1.18975
H          2.86742      -12.14772       -0.59882
H          6.43692      -14.05704        0.27109
H          8.60192      -12.74649        1.00981
$end

$opt
CONSTRAINT
tors 4 6 7 8 -165.00000
tors 10 13 16 17 -179.11427
tors 17 19 22 25 179.21698
ENDCONSTRAINT
$end
