$comment
   OPTIMIZATION
$end

$rem
   JOBTYPE OPT
   EXCHANGE omegaB97X-D
   BASIS cc-pVTZ
$end

$molecule
   0 1
C          0.00000        0.00000        0.00000
C          1.38508        0.00000        0.00000
N         -0.72771       -1.11322        0.00000
C          2.04720       -1.21160       -0.00386
C         -0.08136       -2.27149       -0.00595
C          1.30925       -2.38901       -0.00649
C          1.96927       -3.70493        0.02329
C          2.83419       -4.10192       -0.95900
C          1.76099       -4.66163        1.05931
N          3.47631       -5.29376       -1.02738
N          0.97097       -4.54660        2.12850
C          2.42887       -5.92270        0.99776
C          3.30725       -6.20360       -0.09871
S          1.10278       -5.92570        2.94914
N          2.13804       -6.72934        2.01445
C          4.03603       -7.43976       -0.26144
S          3.97092       -8.80022        0.80659
C          4.89341       -7.71864       -1.30083
C          5.07877       -9.71574       -0.14013
S          5.40979       -6.82755       -2.69172
C          5.49103       -9.00339       -1.24697
C          5.47552      -11.05814        0.22963
C          6.41291       -8.17702       -3.17988
C          6.37352       -9.24002       -2.35710
N          6.30039      -11.77837       -0.47485
S          4.88842      -11.85816        1.66172
C          6.49486      -13.00139        0.09488
C          5.82278      -13.23507        1.24841
H         -0.55134        0.93273        0.00000
H          1.92494        0.93597       -0.01293
H          3.12873       -1.25416       -0.02668
H         -0.69553       -3.16348       -0.00579
H          3.06250       -3.42838       -1.77529
H          6.98786       -8.09287       -4.08904
H          6.91623      -10.15989       -2.49377
H          7.15426      -13.71198       -0.37965
H          5.82577      -14.11965        1.86075
$end

$opt
CONSTRAINT
tors 4 6 7 8 -60.00000
tors 10 13 16 17 -179.11427
tors 17 19 22 25 179.21698
ENDCONSTRAINT
$end
