$comment
   OPTIMIZATION
$end

$rem
   JOBTYPE OPT
   EXCHANGE omegaB97X-D
   BASIS cc-pVTZ
$end

$molecule
   0 1
C          0.00000        0.00000        0.00000
C          1.38508        0.00000        0.00000
N         -0.72771       -1.11322        0.00000
C          2.04720       -1.21160       -0.00386
C         -0.08136       -2.27149       -0.00595
C          1.30925       -2.38901       -0.00649
C          1.96927       -3.70493        0.02329
C          3.28890       -3.84412        0.35462
C          1.29971       -4.92354       -0.29085
N          3.98643       -5.00571        0.39547
N          0.02543       -5.08380       -0.65281
C          2.02381       -6.15421       -0.25488
C          3.41000       -6.14741        0.10730
S         -0.18732       -6.65998       -0.90412
N          1.28967       -7.21363       -0.58288
C          4.23769       -7.32861        0.18048
S          3.72687       -8.94473       -0.17021
C          5.56578       -7.33975        0.54002
C          5.27917       -9.60834        0.16412
S          6.68566       -6.10401        1.00270
C          6.16987       -8.62258        0.53484
C          5.54903      -11.02553        0.04186
C          7.93982       -7.31244        1.18268
C          7.55541       -8.57316        0.91562
N          6.71666      -11.55262        0.27473
S          4.33620      -12.18256       -0.43345
C          6.69499      -12.90139        0.07841
C          5.50688      -13.42868       -0.30541
H         -0.55134        0.93273        0.00000
H          1.92494        0.93597       -0.01293
H          3.12873       -1.25416       -0.02668
H         -0.69553       -3.16348       -0.00579
H          3.86802       -2.97005        0.62432
H          8.92632       -6.99451        1.48258
H          8.18484       -9.44529        0.96639
H          7.59515      -13.47703        0.23095
H          5.26354      -14.45541       -0.51528
$end

$opt
CONSTRAINT
tors 4 6 7 8 15.00000
tors 10 13 16 17 -179.11427
tors 17 19 22 25 179.21698
ENDCONSTRAINT
$end
