$comment
   OPTIMIZATION
$end

$rem
   JOBTYPE OPT
   EXCHANGE omegaB97X-D
   BASIS cc-pVTZ
$end

$molecule
   0 1
C          0.00000        0.00000        0.00000
C          1.38508        0.00000        0.00000
N         -0.72771       -1.11322        0.00000
C          2.04720       -1.21160       -0.00386
C         -0.08136       -2.27149       -0.00595
C          1.30925       -2.38901       -0.00649
C          1.96927       -3.70493        0.02329
C          1.25546       -4.87157        0.02106
C          3.38466       -3.86983        0.06160
N          1.76934       -6.12526        0.06193
N          4.31651       -2.91495        0.08058
C          3.93919       -5.18531        0.10823
C          3.06506       -6.32048        0.10457
S          5.74115       -3.66278        0.14328
N          5.26821       -5.20141        0.15664
C          3.51327       -7.69275        0.14508
S          5.16097       -8.21647        0.22622
C          2.68709       -8.79291        0.12805
C          4.72941       -9.88243        0.23686
S          0.96930       -8.99245        0.05994
C          3.36027      -10.03979        0.18030
C          5.72491      -10.93128        0.30804
C          1.17282      -10.73098        0.10143
C          2.44875      -11.15153        0.16196
N          5.42641      -12.19847        0.33176
S          7.43607      -10.60956        0.37151
C          6.54993      -12.96669        0.40730
C          7.72822      -12.29769        0.43930
H         -0.55134        0.93273        0.00000
H          1.92494        0.93597       -0.01293
H          3.12873       -1.25416       -0.02668
H         -0.69553       -3.16348       -0.00579
H          0.17432       -4.83735       -0.02461
H          0.29353      -11.35606        0.08334
H          2.76993      -12.17856        0.19957
H          6.45978      -14.04180        0.43800
H          8.72590      -12.69588        0.49860
$end

$opt
CONSTRAINT
tors 4 6 7 8 180.00000
tors 10 13 16 17 -179.11427
tors 17 19 22 25 179.21698
ENDCONSTRAINT
$end
