$comment
   OPTIMIZATION
$end

$rem
   JOBTYPE OPT
   EXCHANGE omegaB97X-D
   BASIS cc-pVTZ
$end

$molecule
   0 1
C          0.00000        0.00000        0.00000
C          1.38508        0.00000        0.00000
N         -0.72771       -1.11322        0.00000
C          2.04720       -1.21160       -0.00386
C         -0.08136       -2.27149       -0.00595
C          1.30925       -2.38901       -0.00649
C          1.96927       -3.70493        0.02329
C          2.78987       -4.07864        1.05166
C          1.81451       -4.68147       -1.00356
N          3.45134       -5.25676        1.16117
N          1.08733       -4.58435       -2.11814
C          2.50849       -5.92576       -0.90216
C          3.34144       -6.17889        0.23575
S          1.28999       -5.96469       -2.92210
N          2.29203       -6.74138       -1.93018
C          4.08485       -7.39929        0.44462
S          4.12699       -8.75448       -0.63124
C          4.87732       -7.66246        1.53821
C          5.19294       -9.64662        0.38346
S          5.28128       -6.76407        2.96122
C          5.51214       -8.93022        1.51809
C          5.66312      -10.96865        0.02657
C          6.28771       -8.08845        3.50777
C          6.32729       -9.14916        2.68204
N          6.48032      -11.65999        0.76795
S          5.18556      -11.77933       -1.43983
C          6.76480      -12.86373        0.19500
C          6.16570      -13.11384       -0.99474
H         -0.55134        0.93273        0.00000
H          1.92494        0.93597       -0.01293
H          3.12873       -1.25416       -0.02668
H         -0.69553       -3.16348       -0.00579
H          2.94868       -3.40269        1.88230
H          6.81276       -7.98755        4.44497
H          6.89224      -10.05108        2.84557
H          7.43407      -13.54733        0.69471
H          6.24653      -13.98733       -1.61758
$end

$opt
CONSTRAINT
tors 4 6 7 8 60.00000
tors 10 13 16 17 -179.11427
tors 17 19 22 25 179.21698
ENDCONSTRAINT
$end
