$comment
   OPTIMIZATION
$end

$rem
   JOBTYPE OPT
   EXCHANGE omegaB97X-D
   BASIS cc-pVTZ
$end

$molecule
   0 1
C          0.00000        0.00000        0.00000
C          1.38508        0.00000        0.00000
N         -0.72771       -1.11322        0.00000
C          2.04720       -1.21160       -0.00386
C         -0.08136       -2.27149       -0.00595
C          1.30925       -2.38901       -0.00649
C          1.96927       -3.70493        0.02329
C          1.75215       -4.59950        1.03481
C          2.87912       -4.14699       -0.98108
N          2.32168       -5.82343        1.15786
N          3.27890       -3.48400       -2.06787
C          3.48883       -5.43315       -0.86187
C          3.16858       -6.26504        0.25978
S          4.31984       -4.44308       -2.83560
N          4.32748       -5.71875       -1.85385
C          3.72007       -7.58144        0.48028
S          4.86834       -8.38056       -0.53887
C          3.41180       -8.39736        1.54445
C          4.92198       -9.78079        0.46026
S          2.36379       -8.22850        2.91135
C          4.08460       -9.64554        1.54792
C          5.76685      -10.91390        0.14653
C          2.83605       -9.82061        3.46609
C          3.72618      -10.45379        2.68170
N          5.83769      -11.97952        0.89142
S          6.78495      -10.97320       -1.26612
C          6.71154      -12.88649        0.36990
C          7.32169      -12.52933       -0.78643
H         -0.55134        0.93273        0.00000
H          1.92494        0.93597       -0.01293
H          3.12873       -1.25416       -0.02668
H         -0.69553       -3.16348       -0.00579
H          1.06117       -4.35057        1.83022
H          2.40824      -10.19811        4.38189
H          4.13604      -11.43313        2.86135
H          6.87781      -13.82209        0.88169
H          8.03970      -13.08226       -1.36623
$end

$opt
CONSTRAINT
tors 4 6 7 8 120.00000
tors 10 13 16 17 -179.11427
tors 17 19 22 25 179.21698
ENDCONSTRAINT
$end
