$comment
   OPTIMIZATION
$end

$rem
   JOBTYPE OPT
   EXCHANGE omegaB97X-D
   BASIS cc-pVTZ
$end

$molecule
   0 1
C          0.00000        0.00000        0.00000
C          1.38508        0.00000        0.00000
N         -0.72771       -1.11322        0.00000
C          2.04720       -1.21160       -0.00386
C         -0.08136       -2.27149       -0.00595
C          1.30925       -2.38901       -0.00649
C          1.96927       -3.70493        0.02329
C          2.53703       -4.20292        1.16356
C          2.07436       -4.55371       -1.11712
N          3.17745       -5.39129        1.28660
N          1.62260       -4.32114       -2.35095
C          2.74952       -5.80713       -1.00203
C          3.30172       -6.19824        0.26084
S          2.03153       -5.59995       -3.23988
N          2.79182       -6.49543       -2.13929
C          3.99969       -7.44089        0.49394
S          4.31479       -8.66166       -0.69189
C          4.52293       -7.83646        1.70346
C          5.13418       -9.67500        0.43218
S          4.57023       -7.11360        3.27524
C          5.16906       -9.09852        1.68477
C          5.69896      -10.95028        0.04379
C          5.44802       -8.50111        3.88344
C          5.69728       -9.45857        2.97260
N          6.33571      -11.73023        0.86941
S          5.58844      -11.58036       -1.57683
C          6.76753      -12.86128        0.24296
C          6.46428      -12.96587       -1.07388
H         -0.55134        0.93273        0.00000
H          1.92494        0.93597       -0.01293
H          3.12873       -1.25416       -0.02668
H         -0.69553       -3.16348       -0.00579
H          2.48688       -3.62982        2.08070
H          5.74038       -8.51462        4.92197
H          6.22612      -10.37812        3.15733
H          7.31604      -13.60410        0.80177
H          6.70328      -13.76141       -1.75758
$end

$opt
CONSTRAINT
tors 4 6 7 8 75.00000
tors 10 13 16 17 -179.11427
tors 17 19 22 25 179.21698
ENDCONSTRAINT
$end
