$comment
   OPTIMIZATION
$end

$rem
   JOBTYPE OPT
   EXCHANGE omegaB97X-D
   BASIS cc-pVTZ
$end

$molecule
   0 1
C          0.00000        0.00000        0.00000
C          1.38508        0.00000        0.00000
N         -0.72771       -1.11322        0.00000
C          2.04720       -1.21160       -0.00386
C         -0.08136       -2.27149       -0.00595
C          1.30925       -2.38901       -0.00649
C          1.96927       -3.70493        0.02329
C          1.28419       -4.85034        0.32209
C          3.35639       -3.89101       -0.24742
N          1.80410       -6.10042        0.38908
N          4.25922       -2.95809       -0.55571
C          3.91768       -5.20255       -0.17705
C          3.07605       -6.31385        0.15373
S          5.66589       -3.72045       -0.73701
N          5.22187       -5.23805       -0.43541
C          3.53300       -7.68050        0.24937
S          5.15903       -8.22238        0.00822
C          2.73462       -8.75947        0.55207
C          4.75570       -9.86753        0.31248
S          1.04951       -8.93307        0.90635
C          3.41207      -10.00448        0.59247
C          5.74941      -10.91977        0.27361
C          1.27173      -10.65872        1.10218
C          2.53047      -11.09350        0.91496
N          5.47520      -12.16989        0.51326
S          7.42598      -10.62525       -0.09787
C          6.59209      -12.94535        0.41630
C          7.74007      -12.29949        0.09701
H         -0.55134        0.93273        0.00000
H          1.92494        0.93597       -0.01293
H          3.12873       -1.25416       -0.02668
H         -0.69553       -3.16348       -0.00579
H          0.22163       -4.80122        0.52371
H          0.41745      -11.26500        1.36072
H          2.86026      -12.11520        0.99689
H          6.52054      -14.00783        0.59217
H          8.72767      -12.70695       -0.02972
$end

$opt
CONSTRAINT
tors 4 6 7 8 165.00000
tors 10 13 16 17 -179.11427
tors 17 19 22 25 179.21698
ENDCONSTRAINT
$end
